O                                       
   6.00000000000000     
     1.0000000000000000    0.0000000000000000    0.0000000000000000
     0.0000000000000000    1.0000000000000000    0.0000000000000000
     0.0000000000000000    0.0000000000000000    1.0000000000000000
   O 
     2
Selective dynamics
Direct
  0.3905805882843278  0.5000000000000000  0.5000000000000000   T   T   T
  0.6094194117156723  0.5000000000000000  0.5000000000000000   T   T   T
 
  0.00000000E+00  0.00000000E+00  0.00000000E+00
  0.00000000E+00  0.00000000E+00  0.00000000E+00
