O 
6
1    0    0
0    1    0
0    0    1
2
Selective dynamics
Direct
0.35 0.5 0.5 T T T
0.65 0.5 0.5 T T T
