Ar                                      
   15.0000000000000     
     1.0000000000000000    0.0000000000000000    0.0000000000000000
     0.0000000000000000    1.0000000000000000    0.0000000000000000
     0.0000000000000000    0.0000000000000000    1.0000000000000000
   Ar
    32
Selective dynamics
Direct
  0.1781416342696638  0.2093928169637048  0.1510934544420600   T   T   T
  0.3893508673050515  0.5748259906990060  0.3179673731016101   T   T   T
  0.3901548325762824  0.1201231845967777  0.4135756505646569   T   T   T
  0.1566541755849302  0.4885768094883554  0.2723948665531636   T   T   T
  0.6456135026664364  0.3637205580448515  0.2821411258126337   T   T   T
  0.8752899201247738  0.2530195374135738  0.2618219630939348   T   T   T
  0.7935092834578780  0.2625626846556453  0.5217549276905552   T   T   T
  0.5445982332345912  0.3005130993853558  0.4551663562155950   T   T   T
  0.3457122121296463  0.6295003123785570  0.1077456985447684   T   T   T
  0.4714284573291872  0.7617574044812007  0.9708818178781822   T   T   T
  0.5292430095666598  0.4942077615093061  0.4571161147447034   T   T   T
  0.9894580316550550  0.5689323660097092  0.5214187173203255   T   T   T
  0.6205779923473124  0.5682757118758155  0.1816343646277650   T   T   T
  0.6836288160379362  0.7410603019463678  0.2399915314304344   T   T   T
  0.8287888002574478  0.4816254291500502  0.4499280313786240   T   T   T
  0.5795971929713370  0.8782113832871942  0.3311017653085483   T   T   T
  0.2257902389243789  0.2214982647636506  0.6973380943594588   T   T   T
  0.4300037226970513  0.4608504432397136  0.6589019022271497   T   T   T
  0.4558916045972480  0.1915058729708459  0.7793648124407021   T   T   T
  0.2329615447940341  0.4831443618450804  0.8071911303799856   T   T   T
  0.6146046883969760  0.0721844618135589  0.7106797307022752   T   T   T
  0.9473890679802508  0.3872462757921628  0.6547057969316936   T   T   T
  0.5671874772006941  0.3382287925865274  0.7100463648820408   T   T   T
  0.4956094230026319  0.4808660814267660  0.8646868169649135   T   T   T
  0.2800931764896425  0.4578252694945509  0.4603866395533566   T   T   T
  0.4961333097821792  0.8622984456952062  0.5731864299332192   T   T   T
  0.3629175593326749  0.7358318881556106  0.6308198687052565   T   T   T
  0.9490852607044800  0.7467057279418141  0.7972162899885643   T   T   T
  0.6532555445338739  0.5773135619322366  0.5874185041595303   T   T   T
  0.7954433915579344  0.8599969498006401  0.4727797262138209   T   T   T
  0.8189491611865360  0.5905016369112653  0.8821098730887699   T   T   T
  0.6399378673052502  0.8246966137449228  0.7644342607617244   T   T   T
 
 -0.25321611E-02 -0.12174357E-01  0.69414246E-03
 -0.90565656E-02 -0.62242479E-02 -0.17388356E-02
  0.52011931E-02 -0.57312625E-02 -0.17563628E-02
  0.74163882E-02  0.79433384E-02 -0.59546274E-02
 -0.12153556E-02  0.10405880E-01  0.15588693E-01
 -0.21651050E-02 -0.11492453E-01 -0.36216047E-02
 -0.94537622E-02 -0.82059490E-03  0.21615301E-02
  0.11630548E-01 -0.63031426E-02 -0.43545274E-02
 -0.80775410E-02 -0.54343864E-02 -0.68224089E-02
 -0.16959842E-02 -0.12797314E-03  0.65979596E-02
  0.32461354E-02 -0.25797227E-02  0.26149529E-02
  0.19356493E-02  0.11479603E-01 -0.31872091E-02
 -0.69826313E-02 -0.26258484E-02 -0.46167198E-02
 -0.42028710E-02 -0.53311686E-02  0.28823690E-03
 -0.22923071E-02 -0.13650473E-01 -0.64810109E-02
 -0.10982350E-01  0.14262612E-02 -0.15504462E-02
  0.25805929E-02 -0.21711027E-02  0.26519749E-02
  0.80003238E-02 -0.69941408E-03  0.35067581E-02
 -0.42705053E-02  0.69258712E-02 -0.56243100E-02
 -0.22615396E-02  0.14408600E-01 -0.66558865E-02
  0.95320589E-02  0.49327176E-02 -0.50124438E-02
  0.11250568E-01 -0.28714032E-02 -0.10392687E-02
  0.12149561E-01  0.16686803E-02 -0.10596611E-01
 -0.47648532E-02 -0.40283431E-02  0.11853728E-01
  0.15660136E-02  0.41495858E-02 -0.79239341E-02
  0.18100711E-01 -0.89443948E-03  0.57156890E-02
 -0.37943863E-02 -0.21703184E-02 -0.97532464E-02
 -0.48844379E-02  0.20393699E-01  0.28075429E-02
  0.11752906E-01  0.15031903E-02  0.91602668E-02
 -0.12749627E-01  0.26457709E-02  0.11387339E-01
 -0.11225170E-01  0.41291830E-02  0.15096034E-02
 -0.17554958E-02 -0.66817304E-02  0.10151036E-01
 
           1
   2.50000000000000     
  0.10000000E+01  0.00000000E+00  0.00000000E+00  0.00000000E+00
  0.17814163E+00  0.20939282E+00  0.15109345E+00
  0.38935087E+00  0.57482599E+00  0.31796737E+00
  0.39015483E+00  0.12012318E+00  0.41357565E+00
  0.15665418E+00  0.48857681E+00  0.27239487E+00
  0.64561350E+00  0.36372056E+00  0.28214113E+00
  0.87528992E+00  0.25301954E+00  0.26182196E+00
  0.79350928E+00  0.26256268E+00  0.52175493E+00
  0.54459823E+00  0.30051310E+00  0.45516636E+00
  0.34571221E+00  0.62950031E+00  0.10774570E+00
  0.47142846E+00  0.76175740E+00  0.97088182E+00
  0.52924301E+00  0.49420776E+00  0.45711611E+00
  0.98945803E+00  0.56893237E+00  0.52141872E+00
  0.62057799E+00  0.56827571E+00  0.18163436E+00
  0.68362882E+00  0.74106030E+00  0.23999153E+00
  0.82878880E+00  0.48162543E+00  0.44992803E+00
  0.57959719E+00  0.87821138E+00  0.33110177E+00
  0.22579024E+00  0.22149826E+00  0.69733809E+00
  0.43000372E+00  0.46085044E+00  0.65890190E+00
  0.45589160E+00  0.19150587E+00  0.77936481E+00
  0.23296154E+00  0.48314436E+00  0.80719113E+00
  0.61460469E+00  0.72184462E-01  0.71067973E+00
  0.94738907E+00  0.38724628E+00  0.65470580E+00
  0.56718748E+00  0.33822879E+00  0.71004636E+00
  0.49560942E+00  0.48086608E+00  0.86468682E+00
  0.28009318E+00  0.45782527E+00  0.46038664E+00
  0.49613331E+00  0.86229845E+00  0.57318643E+00
  0.36291756E+00  0.73583189E+00  0.63081987E+00
  0.94908526E+00  0.74670573E+00  0.79721629E+00
  0.65325554E+00  0.57731356E+00  0.58741850E+00
  0.79544339E+00  0.85999695E+00  0.47277973E+00
  0.81894916E+00  0.59050164E+00  0.88210987E+00
  0.63993787E+00  0.82469661E+00  0.76443426E+00
  0.00000000E+00  0.00000000E+00  0.00000000E+00
  0.00000000E+00  0.00000000E+00  0.00000000E+00
  0.00000000E+00  0.00000000E+00  0.00000000E+00
  0.00000000E+00  0.00000000E+00  0.00000000E+00
  0.00000000E+00  0.00000000E+00  0.00000000E+00
  0.00000000E+00  0.00000000E+00  0.00000000E+00
  0.00000000E+00  0.00000000E+00  0.00000000E+00
  0.00000000E+00  0.00000000E+00  0.00000000E+00
  0.00000000E+00  0.00000000E+00  0.00000000E+00
  0.00000000E+00  0.00000000E+00  0.00000000E+00
  0.00000000E+00  0.00000000E+00  0.00000000E+00
  0.00000000E+00  0.00000000E+00  0.00000000E+00
  0.00000000E+00  0.00000000E+00  0.00000000E+00
  0.00000000E+00  0.00000000E+00  0.00000000E+00
  0.00000000E+00  0.00000000E+00  0.00000000E+00
  0.00000000E+00  0.00000000E+00  0.00000000E+00
  0.00000000E+00  0.00000000E+00  0.00000000E+00
  0.00000000E+00  0.00000000E+00  0.00000000E+00
  0.00000000E+00  0.00000000E+00  0.00000000E+00
  0.00000000E+00  0.00000000E+00  0.00000000E+00
  0.00000000E+00  0.00000000E+00  0.00000000E+00
  0.00000000E+00  0.00000000E+00  0.00000000E+00
  0.00000000E+00  0.00000000E+00  0.00000000E+00
  0.00000000E+00  0.00000000E+00  0.00000000E+00
  0.00000000E+00  0.00000000E+00  0.00000000E+00
  0.00000000E+00  0.00000000E+00  0.00000000E+00
  0.00000000E+00  0.00000000E+00  0.00000000E+00
  0.00000000E+00  0.00000000E+00  0.00000000E+00
  0.00000000E+00  0.00000000E+00  0.00000000E+00
  0.00000000E+00  0.00000000E+00  0.00000000E+00
  0.00000000E+00  0.00000000E+00  0.00000000E+00
  0.00000000E+00  0.00000000E+00  0.00000000E+00
  0.00000000E+00  0.00000000E+00  0.00000000E+00
  0.00000000E+00  0.00000000E+00  0.00000000E+00
  0.00000000E+00  0.00000000E+00  0.00000000E+00
  0.00000000E+00  0.00000000E+00  0.00000000E+00
  0.00000000E+00  0.00000000E+00  0.00000000E+00
  0.00000000E+00  0.00000000E+00  0.00000000E+00
  0.00000000E+00  0.00000000E+00  0.00000000E+00
  0.00000000E+00  0.00000000E+00  0.00000000E+00
  0.00000000E+00  0.00000000E+00  0.00000000E+00
  0.00000000E+00  0.00000000E+00  0.00000000E+00
  0.00000000E+00  0.00000000E+00  0.00000000E+00
  0.00000000E+00  0.00000000E+00  0.00000000E+00
  0.00000000E+00  0.00000000E+00  0.00000000E+00
  0.00000000E+00  0.00000000E+00  0.00000000E+00
  0.00000000E+00  0.00000000E+00  0.00000000E+00
  0.00000000E+00  0.00000000E+00  0.00000000E+00
  0.00000000E+00  0.00000000E+00  0.00000000E+00
  0.00000000E+00  0.00000000E+00  0.00000000E+00
  0.00000000E+00  0.00000000E+00  0.00000000E+00
  0.00000000E+00  0.00000000E+00  0.00000000E+00
  0.00000000E+00  0.00000000E+00  0.00000000E+00
  0.00000000E+00  0.00000000E+00  0.00000000E+00
  0.00000000E+00  0.00000000E+00  0.00000000E+00
  0.00000000E+00  0.00000000E+00  0.00000000E+00
  0.00000000E+00  0.00000000E+00  0.00000000E+00
  0.00000000E+00  0.00000000E+00  0.00000000E+00
  0.00000000E+00  0.00000000E+00  0.00000000E+00
  0.00000000E+00  0.00000000E+00  0.00000000E+00
  0.00000000E+00  0.00000000E+00  0.00000000E+00
  0.00000000E+00  0.00000000E+00  0.00000000E+00
  0.00000000E+00  0.00000000E+00  0.00000000E+00
  0.00000000E+00  0.00000000E+00  0.00000000E+00
