SYSTEM = Ar cube particle
IBRION=0
POTIM=2.5
ANDERSEN_PROB=0.15
MDALGO=1
TEBEG=2500

RANDOM_SEED=486655384 486655421

ISYM=0
ISMEAR=0;SIGMA=.05
NSW=650
EDIFF=1.0E-04
EDIFFG=-0.01

ENMAX=270.0
PREC=Low
LREAL=Auto
ISIF=0

LWAVE=.FALSE.
LCHARG=.FALSE.
LPLANE=.TRUE.
NCORE=4
NSIM=2
ALGO=Fast
