Ar 
15
1    0    0
0    1    0
0    0    1
32
Selective dynamics
Direct
0.3123984375   0.3123984375   0.3123984375   T T T
0.4371953125   0.4371953125   0.3123984375   T T T
0.4371953125   0.3123984375   0.4371953125   T T T
0.3123984375   0.4371953125   0.4371953125   T T T
0.5619921875   0.3123984375   0.3123984375   T T T
0.6867890625   0.4371953125   0.3123984375   T T T
0.6867890625   0.3123984375   0.4371953125   T T T
0.5619921875   0.4371953125   0.4371953125   T T T
0.3123984375   0.5619921875   0.3123984375   T T T
0.4371953125   0.6867890625   0.3123984375   T T T
0.4371953125   0.5619921875   0.4371953125   T T T
0.3123984375   0.6867890625   0.4371953125   T T T
0.5619921875   0.5619921875   0.3123984375   T T T
0.6867890625   0.6867890625   0.3123984375   T T T
0.6867890625   0.5619921875   0.4371953125   T T T
0.5619921875   0.6867890625   0.4371953125   T T T
0.3123984375   0.3123984375   0.5619921875   T T T
0.4371953125   0.4371953125   0.5619921875   T T T
0.4371953125   0.3123984375   0.6867890625   T T T
0.3123984375   0.4371953125   0.6867890625   T T T
0.5619921875   0.3123984375   0.5619921875   T T T
0.6867890625   0.4371953125   0.5619921875   T T T
0.6867890625   0.3123984375   0.6867890625   T T T
0.5619921875   0.4371953125   0.6867890625   T T T
0.3123984375   0.5619921875   0.5619921875   T T T
0.4371953125   0.6867890625   0.5619921875   T T T
0.4371953125   0.5619921875   0.6867890625   T T T
0.3123984375   0.6867890625   0.6867890625   T T T
0.5619921875   0.5619921875   0.5619921875   T T T
0.6867890625   0.6867890625   0.5619921875   T T T
0.6867890625   0.5619921875   0.6867890625   T T T
0.5619921875   0.6867890625   0.6867890625   T T T
