Sr1 Fe1 O3                              
   1.00000000000000     
    3.8868081692463581 0.0000000000000000 -0.0000000000000004
    0.0000000000000000 3.8868081692463581 0.0000000000000000
    0.0000000000000001 0.0000000000000001 30.5472326769854305
   Sr   Fe   O 
   4 4 12
Selective dynamics 
Direct
   0.5000000000000000 0.5000000000000000 0.0636196445410703   F F F
   0.5000000000000000 0.5000000000000000 0.1908589336232108   F F F
   0.5000000000000000 0.5000000000000000 0.3180982227053513   T T T
   0.5000000000000000 0.5000000000000000 0.4453375117874918   T T T
   0.0000000000000000 0.0000000000000000 0.0000000000000000   F F F
   0.0000000000000000 0.0000000000000000 0.1272392890821405   F F F
   0.0000000000000000 0.0000000000000000 0.2544785781642810   T T T
   0.0000000000000000 0.0000000000000000 0.3817178672464215   T T T
   0.5000000000000000 0.0000000000000000 0.0000000000000000   F F F
   0.5000000000000000 0.0000000000000000 0.1272392890821405   F F F
   0.5000000000000000 0.0000000000000000 0.2544785781642810   T T T
   0.5000000000000000 0.0000000000000000 0.3817178672464215   T T T
   0.0000000000000000 0.5000000000000000 0.0000000000000000   F F F
   0.0000000000000000 0.5000000000000000 0.1272392890821405   F F F
   0.0000000000000000 0.5000000000000000 0.2544785781642810   T T T
   0.0000000000000000 0.5000000000000000 0.3817178672464215   T T T
   0.0000000000000000 0.0000000000000000 0.0636196445410703   F F F
   0.0000000000000000 0.0000000000000000 0.1908589336232108   F F F
   0.0000000000000000 0.0000000000000000 0.3180982227053513   T T T
   0.0000000000000000 0.0000000000000000 0.4453375117874918   T T T

  0.00000000E+00  0.00000000E+00  0.00000000E+00
  0.00000000E+00  0.00000000E+00  0.00000000E+00
  0.00000000E+00  0.00000000E+00  0.00000000E+00
  0.00000000E+00  0.00000000E+00  0.00000000E+00
  0.00000000E+00  0.00000000E+00  0.00000000E+00
  0.00000000E+00  0.00000000E+00  0.00000000E+00
  0.00000000E+00  0.00000000E+00  0.00000000E+00
  0.00000000E+00  0.00000000E+00  0.00000000E+00
  0.00000000E+00  0.00000000E+00  0.00000000E+00
  0.00000000E+00  0.00000000E+00  0.00000000E+00
  0.00000000E+00  0.00000000E+00  0.00000000E+00
  0.00000000E+00  0.00000000E+00  0.00000000E+00
  0.00000000E+00  0.00000000E+00  0.00000000E+00
  0.00000000E+00  0.00000000E+00  0.00000000E+00
  0.00000000E+00  0.00000000E+00  0.00000000E+00
  0.00000000E+00  0.00000000E+00  0.00000000E+00
  0.00000000E+00  0.00000000E+00  0.00000000E+00
  0.00000000E+00  0.00000000E+00  0.00000000E+00
  0.00000000E+00  0.00000000E+00  0.00000000E+00
  0.00000000E+00  0.00000000E+00  0.00000000E+00
  0.00000000E+00  0.00000000E+00  0.00000000E+00
  0.00000000E+00  0.00000000E+00  0.00000000E+00
  0.00000000E+00  0.00000000E+00  0.00000000E+00
  0.00000000E+00  0.00000000E+00  0.00000000E+00
  0.00000000E+00  0.00000000E+00  0.00000000E+00
  0.00000000E+00  0.00000000E+00  0.00000000E+00
  0.00000000E+00  0.00000000E+00  0.00000000E+00
  0.00000000E+00  0.00000000E+00  0.00000000E+00
  0.00000000E+00  0.00000000E+00  0.00000000E+00
  0.00000000E+00  0.00000000E+00  0.00000000E+00
  0.00000000E+00  0.00000000E+00  0.00000000E+00
  0.00000000E+00  0.00000000E+00  0.00000000E+00
  0.00000000E+00  0.00000000E+00  0.00000000E+00
  0.00000000E+00  0.00000000E+00  0.00000000E+00
  0.00000000E+00  0.00000000E+00  0.00000000E+00
  0.00000000E+00  0.00000000E+00  0.00000000E+00
  0.00000000E+00  0.00000000E+00  0.00000000E+00
  0.00000000E+00  0.00000000E+00  0.00000000E+00
  0.00000000E+00  0.00000000E+00  0.00000000E+00
  0.00000000E+00  0.00000000E+00  0.00000000E+00
