Sr1 Fe1 O3                              
   1.00000000000000     
     3.8868081692463581    0.0000000000000000   -0.0000000000000004
     0.0000000000000000    3.8868081692463581    0.0000000000000000
     0.0000000000000001    0.0000000000000001   30.5472326769854305
   Sr   Fe   O 
     4     4    13
Selective dynamics
Direct
  0.5000000000000000  0.5000000000000000  0.0636196445410704   F   F   F
  0.5000000000000000  0.5000000000000000  0.1908589336232112   F   F   F
  0.5000000000000000  0.5000000000000000  0.3205691098034310   T   T   T
  0.5000000000000000  0.5000000000000000  0.4459596042090078   T   T   T
  0.0000000000000000  0.0000000000000000  0.0000000000000000   F   F   F
  0.0000000000000000  0.0000000000000000  0.1272392890821408   F   F   F
  0.0000000000000000  0.0000000000000000  0.2558551146345630   T   T   T
  0.0000000000000000  0.0000000000000000  0.3851022915210434   T   T   T
  0.5000000000000000  0.0000000000000000  0.0000000000000000   F   F   F
  0.5000000000000000  0.0000000000000000  0.1272392890821408   F   F   F
  0.5000000000000000  0.0000000000000000  0.2558235036721740   T   T   T
  0.5000000000000000  0.0000000000000000  0.3841399043450814   T   T   T
  0.0000000000000000  0.5000000000000000  0.0000000000000000   F   F   F
  0.0000000000000000  0.5000000000000000  0.1272392890821408   F   F   F
  0.0000000000000000  0.5000000000000000  0.2558235036721740   T   T   T
  0.0000000000000000  0.5000000000000000  0.3841399043450814   T   T   T
  0.0000000000000000  0.0000000000000000  0.0636196445410704   F   F   F
  0.0000000000000000  0.0000000000000000  0.1908589336232112   F   F   F
  0.0000000000000000  0.0000000000000000  0.3211378854770112   T   T   T
  0.0000000000000000  0.0000000000000000  0.4453735610854114   T   T   T
  0.5000000000000000  0.5000000000000000  0.5251637393656033   T   T   T
 
  0.00000000E+00  0.00000000E+00  0.00000000E+00
  0.00000000E+00  0.00000000E+00  0.00000000E+00
  0.00000000E+00  0.00000000E+00  0.00000000E+00
  0.00000000E+00  0.00000000E+00  0.00000000E+00
  0.00000000E+00  0.00000000E+00  0.00000000E+00
  0.00000000E+00  0.00000000E+00  0.00000000E+00
  0.00000000E+00  0.00000000E+00  0.00000000E+00
  0.00000000E+00  0.00000000E+00  0.00000000E+00
  0.00000000E+00  0.00000000E+00  0.00000000E+00
  0.00000000E+00  0.00000000E+00  0.00000000E+00
  0.00000000E+00  0.00000000E+00  0.00000000E+00
  0.00000000E+00  0.00000000E+00  0.00000000E+00
  0.00000000E+00  0.00000000E+00  0.00000000E+00
  0.00000000E+00  0.00000000E+00  0.00000000E+00
  0.00000000E+00  0.00000000E+00  0.00000000E+00
  0.00000000E+00  0.00000000E+00  0.00000000E+00
  0.00000000E+00  0.00000000E+00  0.00000000E+00
  0.00000000E+00  0.00000000E+00  0.00000000E+00
  0.00000000E+00  0.00000000E+00  0.00000000E+00
  0.00000000E+00  0.00000000E+00  0.00000000E+00
  0.00000000E+00  0.00000000E+00  0.00000000E+00
