Zr O                                    
   18.0000000000000     
     1.0000000000000000    0.0000000000000000    0.0000000000000000
     0.0000000000000000    1.0000000000000000    0.0000000000000000
     0.0000000000000000    0.0000000000000000    1.0000000000000000
   Zr   O 
    38     1
Selective dynamics
Direct
  0.7477827125095775  0.6273892769735998  0.5046670552140176   T   T   T
  0.6284377298284379  0.7474789792660653  0.5001874020935061   T   T   T
  0.2526100261179369  0.6260934140304848  0.5008981137429950   T   T   T
  0.3711413568033251  0.7467915440572901  0.5030711723649263   T   T   T
  0.2524037398921021  0.3727214970188611  0.5022717324468134   T   T   T
  0.3707804013645283  0.2530294502935004  0.4997486319067436   T   T   T
  0.7473333926266337  0.3725075514365557  0.5002879266411430   T   T   T
  0.6278148941426717  0.2529194458658762  0.5032147050213437   T   T   T
  0.6888385200057138  0.4984130166132981  0.5981829412717997   T   T   T
  0.3118368677891583  0.4993474807888147  0.5958076061572014   T   T   T
  0.5017978043657183  0.6890117268676043  0.5977306643596690   T   T   T
  0.4966695939999167  0.3114058929284498  0.5957124021503613   T   T   T
  0.6789610728497815  0.6727560788758978  0.6201910048128758   T   T   T
  0.3267647932437773  0.6771959981142656  0.6199708737603067   T   T   T
  0.3211857723120415  0.3254284516861229  0.6184762829658497   T   T   T
  0.6721366325155516  0.3210709432441842  0.6196148825941209   T   T   T
  0.6924878713917970  0.5018540157396059  0.4044565510074539   T   T   T
  0.3090430584513719  0.4976745985915133  0.4051403424913910   T   T   T
  0.5000818384601288  0.6925376921825532  0.4039211035711041   T   T   T
  0.4988418797774411  0.3088758057125472  0.4049807296933566   T   T   T
  0.6725211302933292  0.6774993372407047  0.3805049263097808   T   T   T
  0.3244405643195871  0.6719874768674238  0.3794242540716783   T   T   T
  0.3267537387043472  0.3238042541332178  0.3793592003385539   T   T   T
  0.6762934094189206  0.3289840743831543  0.3794690681345040   T   T   T
  0.5864539417661877  0.5846543442149269  0.6952863623230305   T   T   T
  0.4136697395841799  0.5862048861583462  0.6947705637819455   T   T   T
  0.4126639151292745  0.4137831571232134  0.6940623341138515   T   T   T
  0.5855857737873623  0.4123740228675929  0.6950888149496016   T   T   T
  0.5850095578024744  0.5880604815395414  0.3106678893616184   T   T   T
  0.4128320429112232  0.5870600505958273  0.3095115943611177   T   T   T
  0.4147866132893031  0.4133154415584920  0.3105753220925934   T   T   T
  0.5879804418250857  0.4147782292893599  0.3098907123066844   T   T   T
  0.4993130638267466  0.4991680173697198  0.5984948909591653   T   T   T
  0.4117049312586877  0.4118106518653609  0.4989374901821712   T   T   T
  0.4123019419201486  0.5882020941387851  0.4997323108093066   T   T   T
  0.4996976652326398  0.4996640424805097  0.3984865172824830   T   T   T
  0.5884450268842171  0.5881435271272397  0.5000627850233159   T   T   T
  0.5879006343620076  0.4119323867784699  0.4996818872947331   T   T   T
  0.4996959092366218  0.4990706639810065  0.7314609520368766   T   T   T
 
  0.00000000E+00  0.00000000E+00  0.00000000E+00
  0.00000000E+00  0.00000000E+00  0.00000000E+00
  0.00000000E+00  0.00000000E+00  0.00000000E+00
  0.00000000E+00  0.00000000E+00  0.00000000E+00
  0.00000000E+00  0.00000000E+00  0.00000000E+00
  0.00000000E+00  0.00000000E+00  0.00000000E+00
  0.00000000E+00  0.00000000E+00  0.00000000E+00
  0.00000000E+00  0.00000000E+00  0.00000000E+00
  0.00000000E+00  0.00000000E+00  0.00000000E+00
  0.00000000E+00  0.00000000E+00  0.00000000E+00
  0.00000000E+00  0.00000000E+00  0.00000000E+00
  0.00000000E+00  0.00000000E+00  0.00000000E+00
  0.00000000E+00  0.00000000E+00  0.00000000E+00
  0.00000000E+00  0.00000000E+00  0.00000000E+00
  0.00000000E+00  0.00000000E+00  0.00000000E+00
  0.00000000E+00  0.00000000E+00  0.00000000E+00
  0.00000000E+00  0.00000000E+00  0.00000000E+00
  0.00000000E+00  0.00000000E+00  0.00000000E+00
  0.00000000E+00  0.00000000E+00  0.00000000E+00
  0.00000000E+00  0.00000000E+00  0.00000000E+00
  0.00000000E+00  0.00000000E+00  0.00000000E+00
  0.00000000E+00  0.00000000E+00  0.00000000E+00
  0.00000000E+00  0.00000000E+00  0.00000000E+00
  0.00000000E+00  0.00000000E+00  0.00000000E+00
  0.00000000E+00  0.00000000E+00  0.00000000E+00
  0.00000000E+00  0.00000000E+00  0.00000000E+00
  0.00000000E+00  0.00000000E+00  0.00000000E+00
  0.00000000E+00  0.00000000E+00  0.00000000E+00
  0.00000000E+00  0.00000000E+00  0.00000000E+00
  0.00000000E+00  0.00000000E+00  0.00000000E+00
  0.00000000E+00  0.00000000E+00  0.00000000E+00
  0.00000000E+00  0.00000000E+00  0.00000000E+00
  0.00000000E+00  0.00000000E+00  0.00000000E+00
  0.00000000E+00  0.00000000E+00  0.00000000E+00
  0.00000000E+00  0.00000000E+00  0.00000000E+00
  0.00000000E+00  0.00000000E+00  0.00000000E+00
  0.00000000E+00  0.00000000E+00  0.00000000E+00
  0.00000000E+00  0.00000000E+00  0.00000000E+00
  0.00000000E+00  0.00000000E+00  0.00000000E+00
