Sr1 Fe1 O3                              
   1.00000000000000     
     3.8897903424448073    0.0000000000000000   -0.0000000000000001
     0.0000000000000000    3.8897903424448073    0.0000000000000000
     0.0000000000000001    0.0000000000000001    3.8897903424448073
   Sr   Fe   O 
     1     1     3
Direct
  0.5000000000000000  0.5000000000000000  0.5000000000000000
  0.0000000000000000  0.0000000000000000  0.0000000000000000
  0.5000000000000000  0.0000000000000000  0.0000000000000000
  0.0000000000000000  0.5000000000000000  0.0000000000000000
  0.0000000000000000  0.0000000000000000  0.5000000000000000
 
  0.00000000E+00  0.00000000E+00  0.00000000E+00
  0.00000000E+00  0.00000000E+00  0.00000000E+00
  0.00000000E+00  0.00000000E+00  0.00000000E+00
  0.00000000E+00  0.00000000E+00  0.00000000E+00
  0.00000000E+00  0.00000000E+00  0.00000000E+00
