Sr1 Fe1 O3                              
   1.00000000000000     
     3.8868081692463581    0.0000000000000000   -0.0000000000000004
     0.0000000000000000    3.8868081692463581    0.0000000000000000
     0.0000000000000001    0.0000000000000001   30.5472326769854305
   Sr   Fe   O 
     4     4    13
Selective dynamics
Direct
  0.5000000000000000  0.5000000000000000  0.0636196445410704   F   F   F
  0.5000000000000000  0.5000000000000000  0.1908589336232112   F   F   F
  0.5000000000000000  0.5000000000000000  0.3198380602401466   T   T   T
  0.5000000000000000  0.5000000000000000  0.4443268607149480   T   T   T
  0.0000000000000000  0.0000000000000000  0.0000000000000000   F   F   F
  0.0000000000000000  0.0000000000000000  0.1272392890821408   F   F   F
  0.0000000000000000  0.0000000000000000  0.2558014085272614   T   T   T
  0.0000000000000000  0.0000000000000000  0.3845962207483329   T   T   T
  0.5000000000000000  0.0000000000000000  0.0000000000000000   F   F   F
  0.5000000000000000  0.0000000000000000  0.1272392890821408   F   F   F
  0.5000000000000000  0.0000000000000000  0.2556999649405219   T   T   T
  0.5000000000000000  0.0000000000000000  0.3835433517630072   T   T   T
  0.0000000000000000  0.5000000000000000  0.0000000000000000   F   F   F
  0.0000000000000000  0.5000000000000000  0.1272392890821408   F   F   F
  0.0000000000000000  0.5000000000000000  0.2556999649405219   T   T   T
  0.0000000000000000  0.5000000000000000  0.3835433517630072   T   T   T
  0.0000000000000000  0.0000000000000000  0.0636196445410704   F   F   F
  0.0000000000000000  0.0000000000000000  0.1908589336232112   F   F   F
  0.0000000000000000  0.0000000000000000  0.3207671552023613   T   T   T
  0.0000000000000000  0.0000000000000000  0.4452162673004388   T   T   T
  0.5000000000000000  0.5000000000000000  0.5290632114682911   T   T   T
 
  0.00000000E+00  0.00000000E+00  0.00000000E+00
  0.00000000E+00  0.00000000E+00  0.00000000E+00
  0.00000000E+00  0.00000000E+00  0.00000000E+00
  0.00000000E+00  0.00000000E+00  0.00000000E+00
  0.00000000E+00  0.00000000E+00  0.00000000E+00
  0.00000000E+00  0.00000000E+00  0.00000000E+00
  0.00000000E+00  0.00000000E+00  0.00000000E+00
  0.00000000E+00  0.00000000E+00  0.00000000E+00
  0.00000000E+00  0.00000000E+00  0.00000000E+00
  0.00000000E+00  0.00000000E+00  0.00000000E+00
  0.00000000E+00  0.00000000E+00  0.00000000E+00
  0.00000000E+00  0.00000000E+00  0.00000000E+00
  0.00000000E+00  0.00000000E+00  0.00000000E+00
  0.00000000E+00  0.00000000E+00  0.00000000E+00
  0.00000000E+00  0.00000000E+00  0.00000000E+00
  0.00000000E+00  0.00000000E+00  0.00000000E+00
  0.00000000E+00  0.00000000E+00  0.00000000E+00
  0.00000000E+00  0.00000000E+00  0.00000000E+00
  0.00000000E+00  0.00000000E+00  0.00000000E+00
  0.00000000E+00  0.00000000E+00  0.00000000E+00
  0.00000000E+00  0.00000000E+00  0.00000000E+00
