Pt Pd                                   
   18.0000000000000     
     1.0000000000000000    0.0000000000000000    0.0000000000000000
     0.0000000000000000    1.0000000000000000    0.0000000000000000
     0.0000000000000000    0.0000000000000000    1.0000000000000000
   Pt   Pd
    32     6
Selective dynamics
Direct
  0.7241598700190295  0.5736770916532805  0.4999988377083753   T   T   T
  0.5736774816778905  0.7241647626239569  0.4999989640334377   T   T   T
  0.2758471783666607  0.5736650793249964  0.5000010157219421   T   T   T
  0.4263339206427688  0.7241522925928692  0.5000005020659728   T   T   T
  0.2758450557270749  0.4263329344006479  0.5000005305199551   T   T   T
  0.4263327815353506  0.2758491881576077  0.4999996124022843   T   T   T
  0.7241596466821321  0.4263248768898720  0.4999993384154777   T   T   T
  0.5736734697345369  0.2758377668670704  0.4999995798376418   T   T   T
  0.6613978498643931  0.5000029081049462  0.6140340251256546   T   T   T
  0.3385967299827826  0.4999982116311728  0.6140433415813504   T   T   T
  0.5000048491093310  0.6614018605641832  0.6140404441816614   T   T   T
  0.4999987645979331  0.3385969989115551  0.6140402649921910   T   T   T
  0.6488619600669665  0.6488623051116917  0.6062224797115405   T   T   T
  0.3511500879907103  0.6488507276137980  0.6062232859458163   T   T   T
  0.3511454153074425  0.3511465438591017  0.6062238258518846   T   T   T
  0.6488551685871968  0.3511446105875820  0.6062204099881328   T   T   T
  0.6613983836428545  0.4999988127583990  0.3859647147589840   T   T   T
  0.3385985406017085  0.4999990478497978  0.3859602575805425   T   T   T
  0.5000038464247538  0.6614033443546958  0.3859587206797457   T   T   T
  0.5000036896048528  0.3385995581566448  0.3859615031132151   T   T   T
  0.6488600957459241  0.6488594154359362  0.3937742326898714   T   T   T
  0.3511518428576750  0.6488487063743804  0.3937781636314028   T   T   T
  0.3511509523283891  0.3511508200769242  0.3937766049265718   T   T   T
  0.6488598426898307  0.3511403524881942  0.3937762508534988   T   T   T
  0.5751671562908172  0.5751680532381513  0.7103543001794819   T   T   T
  0.4248336982997074  0.5751662867998064  0.7103552413945948   T   T   T
  0.4248284896095953  0.4248302650372793  0.7103565401877248   T   T   T
  0.5751621532121192  0.4248373205434675  0.7103491539996512   T   T   T
  0.5751653950599120  0.5751634628653122  0.2896473355740881   T   T   T
  0.4248343633575757  0.5751655690989139  0.2896499094352052   T   T   T
  0.4248346612054021  0.4248334057075951  0.2896498132558420   T   T   T
  0.5751665281827201  0.4248336881467552  0.2896474039385808   T   T   T
  0.4999881426234296  0.4999990510470482  0.6048976241322634   T   T   T
  0.4256378510471919  0.4256476972222316  0.4999995976183413   T   T   T
  0.4256423461760548  0.5743485850071366  0.4999997459074237   T   T   T
  0.4999916320440150  0.4999984631858041  0.3951013457627539   T   T   T
  0.5743403969878926  0.5743517370974800  0.4999973739839447   T   T   T
  0.5743397621153790  0.4256481986137217  0.4999977083129679   T   T   T
 
  0.00000000E+00  0.00000000E+00  0.00000000E+00
  0.00000000E+00  0.00000000E+00  0.00000000E+00
  0.00000000E+00  0.00000000E+00  0.00000000E+00
  0.00000000E+00  0.00000000E+00  0.00000000E+00
  0.00000000E+00  0.00000000E+00  0.00000000E+00
  0.00000000E+00  0.00000000E+00  0.00000000E+00
  0.00000000E+00  0.00000000E+00  0.00000000E+00
  0.00000000E+00  0.00000000E+00  0.00000000E+00
  0.00000000E+00  0.00000000E+00  0.00000000E+00
  0.00000000E+00  0.00000000E+00  0.00000000E+00
  0.00000000E+00  0.00000000E+00  0.00000000E+00
  0.00000000E+00  0.00000000E+00  0.00000000E+00
  0.00000000E+00  0.00000000E+00  0.00000000E+00
  0.00000000E+00  0.00000000E+00  0.00000000E+00
  0.00000000E+00  0.00000000E+00  0.00000000E+00
  0.00000000E+00  0.00000000E+00  0.00000000E+00
  0.00000000E+00  0.00000000E+00  0.00000000E+00
  0.00000000E+00  0.00000000E+00  0.00000000E+00
  0.00000000E+00  0.00000000E+00  0.00000000E+00
  0.00000000E+00  0.00000000E+00  0.00000000E+00
  0.00000000E+00  0.00000000E+00  0.00000000E+00
  0.00000000E+00  0.00000000E+00  0.00000000E+00
  0.00000000E+00  0.00000000E+00  0.00000000E+00
  0.00000000E+00  0.00000000E+00  0.00000000E+00
  0.00000000E+00  0.00000000E+00  0.00000000E+00
  0.00000000E+00  0.00000000E+00  0.00000000E+00
  0.00000000E+00  0.00000000E+00  0.00000000E+00
  0.00000000E+00  0.00000000E+00  0.00000000E+00
  0.00000000E+00  0.00000000E+00  0.00000000E+00
  0.00000000E+00  0.00000000E+00  0.00000000E+00
  0.00000000E+00  0.00000000E+00  0.00000000E+00
  0.00000000E+00  0.00000000E+00  0.00000000E+00
  0.00000000E+00  0.00000000E+00  0.00000000E+00
  0.00000000E+00  0.00000000E+00  0.00000000E+00
  0.00000000E+00  0.00000000E+00  0.00000000E+00
  0.00000000E+00  0.00000000E+00  0.00000000E+00
  0.00000000E+00  0.00000000E+00  0.00000000E+00
  0.00000000E+00  0.00000000E+00  0.00000000E+00
