Pt Pd                                   
   18.0000000000000     
     1.0000000000000000    0.0000000000000000    0.0000000000000000
     0.0000000000000000    1.0000000000000000    0.0000000000000000
     0.0000000000000000    0.0000000000000000    1.0000000000000000
   Pt   Pd
    32     6
Selective dynamics
Direct
  0.7227010881858024  0.5739915487721742  0.4999852229969601   T   T   T
  0.5744340520633915  0.7220904210068640  0.4994313057479264   T   T   T
  0.5726896884459642  0.4276688647257474  0.4992094690908152   T   T   T
  0.2785767046281495  0.5704660474619400  0.5004727302833604   T   T   T
  0.4272776632991731  0.7219831355470663  0.5001620830650119   T   T   T
  0.5006361249991352  0.4969496472013646  0.3894306758500011   T   T   T
  0.2805320111007657  0.4234998846777256  0.4998141825580498   T   T   T
  0.4238172531081499  0.2802152222250797  0.5002286943088690   T   T   T
  0.7200831007576618  0.4268676838223939  0.5008097202748892   T   T   T
  0.5709206383072671  0.2807855218678286  0.5009918741397794   T   T   T
  0.6616978214836072  0.5019225289367024  0.6169715376344094   T   T   T
  0.3393733444504738  0.4980623110576317  0.6160190111002513   T   T   T
  0.5015297536960954  0.6614175130628054  0.6147381952786225   T   T   T
  0.4977060651443591  0.3391616552036672  0.6185057242173687   T   T   T
  0.6501006047044304  0.6500242971999282  0.6078880141935600   T   T   T
  0.3533658669371731  0.6460347210801118  0.6071332991638089   T   T   T
  0.3499519447463142  0.3500494737083428  0.6101131432632726   T   T   T
  0.6453269832220685  0.3542730714156467  0.6091851390524474   T   T   T
  0.6621697156984323  0.5000572340223614  0.3838530202602476   T   T   T
  0.3398604286247899  0.4975514701267742  0.3847278713296824   T   T   T
  0.5003609793908199  0.6618364958354891  0.3857410583064874   T   T   T
  0.4979365935423586  0.3396882069616166  0.3830510483618185   T   T   T
  0.6517491398770918  0.6496004662220600  0.3933459269155116   T   T   T
  0.3498571220207753  0.6473081158888737  0.3949707007551592   T   T   T
  0.3502680884184335  0.3487636264444902  0.3891319959619846   T   T   T
  0.6460270001468181  0.3516396205363265  0.3917542196997316   T   T   T
  0.5767550730728094  0.5776893052316360  0.7139052162775313   T   T   T
  0.4273490809764993  0.5736980378380975  0.7112249341807472   T   T   T
  0.4233209884022905  0.4243592442941203  0.7152855929655986   T   T   T
  0.5731622780136558  0.4279049369837827  0.7140148466972847   T   T   T
  0.5752861172731779  0.5773029557502112  0.2897734223276264   T   T   T
  0.4257616568475566  0.5760941562909742  0.2904864717906540   T   T   T
  0.4212538010179601  0.4239190111488507  0.2811614113327476   T   T   T
  0.5778777721904508  0.4249049874750143  0.2820143506382631   T   T   T
  0.5009193265344525  0.5000398923064142  0.6068949706655536   T   T   T
  0.4267722940602487  0.4259864461396587  0.4992007966428213   T   T   T
  0.4278865297896507  0.5723336514389453  0.4992752539200698   T   T   T
  0.5747053048217464  0.5738585900912904  0.4990968687510913   T   T   T
 
  0.00000000E+00  0.00000000E+00  0.00000000E+00
  0.00000000E+00  0.00000000E+00  0.00000000E+00
  0.00000000E+00  0.00000000E+00  0.00000000E+00
  0.00000000E+00  0.00000000E+00  0.00000000E+00
  0.00000000E+00  0.00000000E+00  0.00000000E+00
  0.00000000E+00  0.00000000E+00  0.00000000E+00
  0.00000000E+00  0.00000000E+00  0.00000000E+00
  0.00000000E+00  0.00000000E+00  0.00000000E+00
  0.00000000E+00  0.00000000E+00  0.00000000E+00
  0.00000000E+00  0.00000000E+00  0.00000000E+00
  0.00000000E+00  0.00000000E+00  0.00000000E+00
  0.00000000E+00  0.00000000E+00  0.00000000E+00
  0.00000000E+00  0.00000000E+00  0.00000000E+00
  0.00000000E+00  0.00000000E+00  0.00000000E+00
  0.00000000E+00  0.00000000E+00  0.00000000E+00
  0.00000000E+00  0.00000000E+00  0.00000000E+00
  0.00000000E+00  0.00000000E+00  0.00000000E+00
  0.00000000E+00  0.00000000E+00  0.00000000E+00
  0.00000000E+00  0.00000000E+00  0.00000000E+00
  0.00000000E+00  0.00000000E+00  0.00000000E+00
  0.00000000E+00  0.00000000E+00  0.00000000E+00
  0.00000000E+00  0.00000000E+00  0.00000000E+00
  0.00000000E+00  0.00000000E+00  0.00000000E+00
  0.00000000E+00  0.00000000E+00  0.00000000E+00
  0.00000000E+00  0.00000000E+00  0.00000000E+00
  0.00000000E+00  0.00000000E+00  0.00000000E+00
  0.00000000E+00  0.00000000E+00  0.00000000E+00
  0.00000000E+00  0.00000000E+00  0.00000000E+00
  0.00000000E+00  0.00000000E+00  0.00000000E+00
  0.00000000E+00  0.00000000E+00  0.00000000E+00
  0.00000000E+00  0.00000000E+00  0.00000000E+00
  0.00000000E+00  0.00000000E+00  0.00000000E+00
  0.00000000E+00  0.00000000E+00  0.00000000E+00
  0.00000000E+00  0.00000000E+00  0.00000000E+00
  0.00000000E+00  0.00000000E+00  0.00000000E+00
  0.00000000E+00  0.00000000E+00  0.00000000E+00
  0.00000000E+00  0.00000000E+00  0.00000000E+00
  0.00000000E+00  0.00000000E+00  0.00000000E+00
