Pt Pd                                   
   18.0000000000000     
     1.0000000000000000    0.0000000000000000    0.0000000000000000
     0.0000000000000000    1.0000000000000000    0.0000000000000000
     0.0000000000000000    0.0000000000000000    1.0000000000000000
  32   6
Selective dynamics
Direct
  0.7241598700190316  0.5736770916532800  0.4999988377083726   T   T   T
  0.5736774816778895  0.7241647626239578  0.4999989640334397   T   T   T
  0.5743397621153762  0.4256481986137199  0.4999977083129682   T   T   T
  0.2758471783666592  0.5736650793249993  0.5000010157219410   T   T   T
  0.4263339206427654  0.7241522925928687  0.5000005020659758   T   T   T
  0.4999916320440138  0.4999984631858030  0.3951013457627558   T   T   T
  0.2758450557270765  0.4263329344006481  0.5000005305199527   T   T   T
  0.4263327815353513  0.2758491881576062  0.4999996124022864   T   T   T
  0.7241596466821320  0.4263248768898698  0.4999993384154781   T   T   T
  0.5736734697345388  0.2758377668670712  0.4999995798376389   T   T   T
  0.6613978498643941  0.5000029081049486  0.6140340251256563   T   T   T
  0.3385967299827796  0.4999982116311694  0.6140433415813517   T   T   T
  0.5000048491093331  0.6614018605641810  0.6140404441816634   T   T   T
  0.4999987645979328  0.3385969989115544  0.6140402649921900   T   T   T
  0.6488619600669692  0.6488623051116916  0.6062224797115378   T   T   T
  0.3511500879907096  0.6488507276137999  0.6062232859458148   T   T   T
  0.3511454153074447  0.3511465438591050  0.6062238258518843   T   T   T
  0.6488551685871997  0.3511446105875821  0.6062204099881323   T   T   T
  0.6613983836428573  0.4999988127584001  0.3859647147589866   T   T   T
  0.3385985406017068  0.4999990478497983  0.3859602575805397   T   T   T
  0.5000038464247528  0.6614033443546951  0.3859587206797453   T   T   T
  0.5000036896048512  0.3385995581566467  0.3859615031132131   T   T   T
  0.6488600957459228  0.6488594154359344  0.3937742326898684   T   T   T
  0.3511518428576784  0.6488487063743797  0.3937781636314028   T   T   T
  0.3511509523283908  0.3511508200769227  0.3937766049265707   T   T   T
  0.6488598426898285  0.3511403524881970  0.3937762508535010   T   T   T
  0.5751671562908193  0.5751680532381506  0.7103543001794799   T   T   T
  0.4248336982997043  0.5751662867998097  0.7103552413945924   T   T   T
  0.4248284896095941  0.4248302650372811  0.7103565401877235   T   T   T
  0.5751621532121165  0.4248373205434675  0.7103491539996516   T   T   T
  0.5751653950599100  0.5751634628653101  0.2896473355740877   T   T   T
  0.4248343633575749  0.5751655690989128  0.2896499094352072   T   T   T
  0.4248346612053994  0.4248334057075943  0.2896498132558426   T   T   T
  0.5751665281827222  0.4248336881467578  0.2896474039385774   T   T   T
  0.4999881426234279  0.4999990510470453  0.6048976241322660   T   T   T
  0.4256378510471951  0.4256476972222336  0.4999995976183380   T   T   T
  0.4256423461760577  0.5743485850071364  0.4999997459074255   T   T   T
  0.5743403969878933  0.5743517370974786  0.4999973739839468   T   T   T

  0.00000000E+00  0.00000000E+00  0.00000000E+00
  0.00000000E+00  0.00000000E+00  0.00000000E+00
  0.00000000E+00  0.00000000E+00  0.00000000E+00
  0.00000000E+00  0.00000000E+00  0.00000000E+00
  0.00000000E+00  0.00000000E+00  0.00000000E+00
  0.00000000E+00  0.00000000E+00  0.00000000E+00
  0.00000000E+00  0.00000000E+00  0.00000000E+00
  0.00000000E+00  0.00000000E+00  0.00000000E+00
  0.00000000E+00  0.00000000E+00  0.00000000E+00
  0.00000000E+00  0.00000000E+00  0.00000000E+00
  0.00000000E+00  0.00000000E+00  0.00000000E+00
  0.00000000E+00  0.00000000E+00  0.00000000E+00
  0.00000000E+00  0.00000000E+00  0.00000000E+00
  0.00000000E+00  0.00000000E+00  0.00000000E+00
  0.00000000E+00  0.00000000E+00  0.00000000E+00
  0.00000000E+00  0.00000000E+00  0.00000000E+00
  0.00000000E+00  0.00000000E+00  0.00000000E+00
  0.00000000E+00  0.00000000E+00  0.00000000E+00
  0.00000000E+00  0.00000000E+00  0.00000000E+00
  0.00000000E+00  0.00000000E+00  0.00000000E+00
  0.00000000E+00  0.00000000E+00  0.00000000E+00
  0.00000000E+00  0.00000000E+00  0.00000000E+00
  0.00000000E+00  0.00000000E+00  0.00000000E+00
  0.00000000E+00  0.00000000E+00  0.00000000E+00
  0.00000000E+00  0.00000000E+00  0.00000000E+00
  0.00000000E+00  0.00000000E+00  0.00000000E+00
  0.00000000E+00  0.00000000E+00  0.00000000E+00
  0.00000000E+00  0.00000000E+00  0.00000000E+00
  0.00000000E+00  0.00000000E+00  0.00000000E+00
  0.00000000E+00  0.00000000E+00  0.00000000E+00
  0.00000000E+00  0.00000000E+00  0.00000000E+00
  0.00000000E+00  0.00000000E+00  0.00000000E+00
  0.00000000E+00  0.00000000E+00  0.00000000E+00
  0.00000000E+00  0.00000000E+00  0.00000000E+00
  0.00000000E+00  0.00000000E+00  0.00000000E+00
  0.00000000E+00  0.00000000E+00  0.00000000E+00
  0.00000000E+00  0.00000000E+00  0.00000000E+00
  0.00000000E+00  0.00000000E+00  0.00000000E+00
