Pt                                      
   16.0000000000000     
     1.0000000000000000    0.0000000000000000    0.0000000000000000
     0.0000000000000000    1.0000000000000000    0.0000000000000000
     0.0000000000000000    0.0000000000000000    1.0000000000000000
   Pt
    32
Selective dynamics
Direct
  0.2960078960758720  0.2764108128600389  0.3305895533750071   T   T   T
  0.4459985980952484  0.4231628774014097  0.3025400100158787   T   T   T
  0.4346473618129980  0.2775130756708325  0.4300546822404140   T   T   T
  0.2902165353341560  0.4330402722595991  0.3543833392465491   T   T   T
  0.5747970559978535  0.3283688074309949  0.3546105881783461   T   T   T
  0.6999127897114402  0.4309046271696216  0.3688271357739817   T   T   T
  0.7215949328368141  0.3296784508593891  0.4857703452324615   T   T   T
  0.5664934866059084  0.4465634117856169  0.4907361777717935   T   T   T
  0.3567090737702693  0.5862541464395270  0.3125010912288677   T   T   T
  0.4644597297225579  0.7023937593922583  0.2744256575313707   T   T   T
  0.3941871966402153  0.5206492406096248  0.4350232723120812   T   T   T
  0.2673813965398152  0.6338829358944594  0.4310267447780572   T   T   T
  0.5683238564785676  0.5308951214527843  0.3281390352412021   T   T   T
  0.6333118582877758  0.7049251119165394  0.3190183157217529   T   T   T
  0.6984181146629669  0.5839366387632362  0.4597143592734774   T   T   T
  0.5264411938196507  0.6833762181350520  0.4414008033265804   T   T   T
  0.3232211562057458  0.3304522566128272  0.5854792849963372   T   T   T
  0.4212585194330097  0.4511888355934806  0.5555888390325295   T   T   T
  0.4598787397366692  0.3446535849174727  0.6662385587272165   T   T   T
  0.3674456583916908  0.4447282253147670  0.7028601178321110   T   T   T
  0.5512864211185121  0.2748027196854451  0.5216358710054331   T   T   T
  0.7164319907679295  0.4441431098755302  0.5957434588863905   T   T   T
  0.6767802951996097  0.2899229656196692  0.6462497768242700   T   T   T
  0.5558452019142112  0.4530073353519041  0.6888197880294806   T   T   T
  0.2745602622317218  0.5262023021888803  0.5905814266362692   T   T   T
  0.3911275561184644  0.6768890794540272  0.5247903010958621   T   T   T
  0.4520524789125716  0.6137912952036348  0.6670030907628394   T   T   T
  0.3034325325133266  0.6210887007955939  0.7072058002271336   T   T   T
  0.5725321155351443  0.5780012500214545  0.5878300728023694   T   T   T
  0.6661696603357200  0.7225347744904300  0.5116732622778095   T   T   T
  0.7211374530683542  0.6044847017530904  0.6528878338572641   T   T   T
  0.5949388821252347  0.7191533550808284  0.6636514057588899   T   T   T
 
  0.51676202E-03 -0.51702690E-03 -0.37549684E-02
 -0.28209061E-02 -0.51093861E-03  0.18930519E-02
  0.18306799E-02  0.85307969E-03 -0.14680969E-02
 -0.14882469E-02  0.59868268E-02  0.10932619E-02
  0.56189741E-02  0.23064404E-02  0.54489832E-02
  0.29143894E-03 -0.78011908E-03 -0.68110418E-02
  0.27881035E-02  0.61533354E-02 -0.51941665E-02
  0.56070592E-02 -0.20584690E-02 -0.33348598E-02
 -0.42251131E-02 -0.49733002E-02  0.53454373E-02
 -0.18911653E-02 -0.41311104E-02  0.68430805E-02
  0.29413632E-02 -0.24504724E-02 -0.31082588E-02
 -0.11969960E-02 -0.53553858E-03  0.56919082E-02
  0.19537416E-02 -0.59192694E-02  0.28414674E-02
 -0.58410873E-02 -0.23529450E-02 -0.47513662E-02
 -0.32790979E-02  0.26600223E-02  0.41400266E-02
  0.17285167E-02 -0.26925219E-02  0.82634926E-02
  0.89203661E-02 -0.17848419E-02  0.39563525E-02
  0.18140523E-02 -0.29799891E-02 -0.19705157E-02
 -0.13347422E-03 -0.42409998E-02  0.74686580E-02
 -0.77845015E-03  0.18442092E-02 -0.49537375E-03
  0.23626923E-02  0.46593099E-02 -0.72097319E-03
 -0.27811655E-02  0.26065016E-02  0.39746952E-02
 -0.38238270E-02 -0.42555725E-03 -0.42444803E-02
 -0.58727373E-02 -0.39596164E-02 -0.62973252E-02
  0.19094913E-02  0.12145134E-02 -0.24676040E-02
 -0.48252418E-02  0.87008070E-02 -0.23801892E-02
 -0.36882056E-03  0.32054430E-03 -0.24595053E-02
 -0.10338793E-02 -0.21657371E-02  0.40478516E-02
 -0.21592355E-02  0.23790304E-02 -0.26594323E-02
  0.21512958E-02  0.48346187E-02  0.11352304E-03
 -0.26570669E-02 -0.43368183E-02 -0.90310724E-03
  0.47419736E-02  0.22960322E-02 -0.81005252E-02
 
           1
   2.10000000000000     
  0.10000000E+01  0.00000000E+00  0.00000000E+00  0.00000000E+00
  0.29600790E+00  0.27641081E+00  0.33058955E+00
  0.44599860E+00  0.42316288E+00  0.30254001E+00
  0.43464736E+00  0.27751308E+00  0.43005468E+00
  0.29021654E+00  0.43304027E+00  0.35438334E+00
  0.57479706E+00  0.32836881E+00  0.35461059E+00
  0.69991279E+00  0.43090463E+00  0.36882714E+00
  0.72159493E+00  0.32967845E+00  0.48577035E+00
  0.56649349E+00  0.44656341E+00  0.49073618E+00
  0.35670907E+00  0.58625415E+00  0.31250109E+00
  0.46445973E+00  0.70239376E+00  0.27442566E+00
  0.39418720E+00  0.52064924E+00  0.43502327E+00
  0.26738140E+00  0.63388294E+00  0.43102674E+00
  0.56832386E+00  0.53089512E+00  0.32813904E+00
  0.63331186E+00  0.70492511E+00  0.31901832E+00
  0.69841811E+00  0.58393664E+00  0.45971436E+00
  0.52644119E+00  0.68337622E+00  0.44140080E+00
  0.32322116E+00  0.33045226E+00  0.58547928E+00
  0.42125852E+00  0.45118884E+00  0.55558884E+00
  0.45987874E+00  0.34465358E+00  0.66623856E+00
  0.36744566E+00  0.44472823E+00  0.70286012E+00
  0.55128642E+00  0.27480272E+00  0.52163587E+00
  0.71643199E+00  0.44414311E+00  0.59574346E+00
  0.67678030E+00  0.28992297E+00  0.64624978E+00
  0.55584520E+00  0.45300734E+00  0.68881979E+00
  0.27456026E+00  0.52620230E+00  0.59058143E+00
  0.39112756E+00  0.67688908E+00  0.52479030E+00
  0.45205248E+00  0.61379130E+00  0.66700309E+00
  0.30343253E+00  0.62108870E+00  0.70720580E+00
  0.57253212E+00  0.57800125E+00  0.58783007E+00
  0.66616966E+00  0.72253477E+00  0.51167326E+00
  0.72113745E+00  0.60448470E+00  0.65288783E+00
  0.59493888E+00  0.71915336E+00  0.66365141E+00
  0.00000000E+00  0.00000000E+00  0.00000000E+00
  0.00000000E+00  0.00000000E+00  0.00000000E+00
  0.00000000E+00  0.00000000E+00  0.00000000E+00
  0.00000000E+00  0.00000000E+00  0.00000000E+00
  0.00000000E+00  0.00000000E+00  0.00000000E+00
  0.00000000E+00  0.00000000E+00  0.00000000E+00
  0.00000000E+00  0.00000000E+00  0.00000000E+00
  0.00000000E+00  0.00000000E+00  0.00000000E+00
  0.00000000E+00  0.00000000E+00  0.00000000E+00
  0.00000000E+00  0.00000000E+00  0.00000000E+00
  0.00000000E+00  0.00000000E+00  0.00000000E+00
  0.00000000E+00  0.00000000E+00  0.00000000E+00
  0.00000000E+00  0.00000000E+00  0.00000000E+00
  0.00000000E+00  0.00000000E+00  0.00000000E+00
  0.00000000E+00  0.00000000E+00  0.00000000E+00
  0.00000000E+00  0.00000000E+00  0.00000000E+00
  0.00000000E+00  0.00000000E+00  0.00000000E+00
  0.00000000E+00  0.00000000E+00  0.00000000E+00
  0.00000000E+00  0.00000000E+00  0.00000000E+00
  0.00000000E+00  0.00000000E+00  0.00000000E+00
  0.00000000E+00  0.00000000E+00  0.00000000E+00
  0.00000000E+00  0.00000000E+00  0.00000000E+00
  0.00000000E+00  0.00000000E+00  0.00000000E+00
  0.00000000E+00  0.00000000E+00  0.00000000E+00
  0.00000000E+00  0.00000000E+00  0.00000000E+00
  0.00000000E+00  0.00000000E+00  0.00000000E+00
  0.00000000E+00  0.00000000E+00  0.00000000E+00
  0.00000000E+00  0.00000000E+00  0.00000000E+00
  0.00000000E+00  0.00000000E+00  0.00000000E+00
  0.00000000E+00  0.00000000E+00  0.00000000E+00
  0.00000000E+00  0.00000000E+00  0.00000000E+00
  0.00000000E+00  0.00000000E+00  0.00000000E+00
  0.00000000E+00  0.00000000E+00  0.00000000E+00
  0.00000000E+00  0.00000000E+00  0.00000000E+00
  0.00000000E+00  0.00000000E+00  0.00000000E+00
  0.00000000E+00  0.00000000E+00  0.00000000E+00
  0.00000000E+00  0.00000000E+00  0.00000000E+00
  0.00000000E+00  0.00000000E+00  0.00000000E+00
  0.00000000E+00  0.00000000E+00  0.00000000E+00
  0.00000000E+00  0.00000000E+00  0.00000000E+00
  0.00000000E+00  0.00000000E+00  0.00000000E+00
  0.00000000E+00  0.00000000E+00  0.00000000E+00
  0.00000000E+00  0.00000000E+00  0.00000000E+00
  0.00000000E+00  0.00000000E+00  0.00000000E+00
  0.00000000E+00  0.00000000E+00  0.00000000E+00
  0.00000000E+00  0.00000000E+00  0.00000000E+00
  0.00000000E+00  0.00000000E+00  0.00000000E+00
  0.00000000E+00  0.00000000E+00  0.00000000E+00
  0.00000000E+00  0.00000000E+00  0.00000000E+00
  0.00000000E+00  0.00000000E+00  0.00000000E+00
  0.00000000E+00  0.00000000E+00  0.00000000E+00
  0.00000000E+00  0.00000000E+00  0.00000000E+00
  0.00000000E+00  0.00000000E+00  0.00000000E+00
  0.00000000E+00  0.00000000E+00  0.00000000E+00
  0.00000000E+00  0.00000000E+00  0.00000000E+00
  0.00000000E+00  0.00000000E+00  0.00000000E+00
  0.00000000E+00  0.00000000E+00  0.00000000E+00
  0.00000000E+00  0.00000000E+00  0.00000000E+00
  0.00000000E+00  0.00000000E+00  0.00000000E+00
  0.00000000E+00  0.00000000E+00  0.00000000E+00
  0.00000000E+00  0.00000000E+00  0.00000000E+00
  0.00000000E+00  0.00000000E+00  0.00000000E+00
  0.00000000E+00  0.00000000E+00  0.00000000E+00
  0.00000000E+00  0.00000000E+00  0.00000000E+00
