Sr1 Fe1 O3                              
   1.00000000000000     
     3.8868081692463581    0.0000000000000000   -0.0000000000000004
     0.0000000000000000    3.8868081692463581    0.0000000000000000
     0.0000000000000001    0.0000000000000001   30.5472326769854305
   Sr   Fe   O 
     4     4    13
Selective dynamics
Direct
  0.5000000000000000  0.5000000000000000  0.0636196445410704   F   F   F
  0.5000000000000000  0.5000000000000000  0.1908589336232112   F   F   F
  0.5000000000000000  0.5000000000000000  0.3202518309489331   T   T   T
  0.5000000000000000  0.5000000000000000  0.4449694334549379   T   T   T
  0.0000000000000000  0.0000000000000000  0.0000000000000000   F   F   F
  0.0000000000000000  0.0000000000000000  0.1272392890821408   F   F   F
  0.0000000000000000  0.0000000000000000  0.2559340328713348   T   T   T
  0.0000000000000000  0.0000000000000000  0.3850144921802942   T   T   T
  0.5000000000000000  0.0000000000000000  0.0000000000000000   F   F   F
  0.5000000000000000  0.0000000000000000  0.1272392890821408   F   F   F
  0.5000000000000000  0.0000000000000000  0.2556360463736629   T   T   T
  0.5000000000000000  0.0000000000000000  0.3837407478003935   T   T   T
  0.0000000000000000  0.5000000000000000  0.0000000000000000   F   F   F
  0.0000000000000000  0.5000000000000000  0.1272392890821408   F   F   F
  0.0000000000000000  0.5000000000000000  0.2556360463736629   T   T   T
  0.0000000000000000  0.5000000000000000  0.3837407478003935   T   T   T
  0.0000000000000000  0.0000000000000000  0.0636196445410704   F   F   F
  0.0000000000000000  0.0000000000000000  0.1908589336232112   F   F   F
  0.0000000000000000  0.0000000000000000  0.3207829562451538   T   T   T
  0.0000000000000000  0.0000000000000000  0.4459533748243630   T   T   T
  0.5000000000000000  0.5000000000000000  0.5293878083482297   T   T   T
 
  0.00000000E+00  0.00000000E+00  0.00000000E+00
  0.00000000E+00  0.00000000E+00  0.00000000E+00
  0.00000000E+00  0.00000000E+00  0.00000000E+00
  0.00000000E+00  0.00000000E+00  0.00000000E+00
  0.00000000E+00  0.00000000E+00  0.00000000E+00
  0.00000000E+00  0.00000000E+00  0.00000000E+00
  0.00000000E+00  0.00000000E+00  0.00000000E+00
  0.00000000E+00  0.00000000E+00  0.00000000E+00
  0.00000000E+00  0.00000000E+00  0.00000000E+00
  0.00000000E+00  0.00000000E+00  0.00000000E+00
  0.00000000E+00  0.00000000E+00  0.00000000E+00
  0.00000000E+00  0.00000000E+00  0.00000000E+00
  0.00000000E+00  0.00000000E+00  0.00000000E+00
  0.00000000E+00  0.00000000E+00  0.00000000E+00
  0.00000000E+00  0.00000000E+00  0.00000000E+00
  0.00000000E+00  0.00000000E+00  0.00000000E+00
  0.00000000E+00  0.00000000E+00  0.00000000E+00
  0.00000000E+00  0.00000000E+00  0.00000000E+00
  0.00000000E+00  0.00000000E+00  0.00000000E+00
  0.00000000E+00  0.00000000E+00  0.00000000E+00
  0.00000000E+00  0.00000000E+00  0.00000000E+00
