Sr1 Fe1 O3                              
   1.00000000000000     
     3.8868081692463581    0.0000000000000000   -0.0000000000000004
     0.0000000000000000    3.8868081692463581    0.0000000000000000
     0.0000000000000001    0.0000000000000001   30.5472326769854305
   Sr   Fe   O 
     4     4    13
Selective dynamics
Direct
  0.5000000000000000  0.5000000000000000  0.0636196445410704   F   F   F
  0.5000000000000000  0.5000000000000000  0.1908589336232112   F   F   F
  0.5000000000000000  0.5000000000000000  0.3175074163497271   T   T   T
  0.5000000000000000  0.5000000000000000  0.4512316310895060   T   T   T
  0.0000000000000000  0.0000000000000000  0.0000000000000000   F   F   F
  0.0000000000000000  0.0000000000000000  0.1272392890821408   F   F   F
  0.0000000000000000  0.0000000000000000  0.2551205001648924   T   T   T
  0.0000000000000000  0.0000000000000000  0.3846998045512180   T   T   T
  0.5000000000000000  0.0000000000000000  0.0000000000000000   F   F   F
  0.5000000000000000  0.0000000000000000  0.1272392890821408   F   F   F
  0.5000000000000000  0.0000000000000000  0.2570807374752775   T   T   T
  0.5000000000000000  0.0000000000000000  0.3967232970186885   T   T   T
  0.0000000000000000  0.5000000000000000  0.0000000000000000   F   F   F
  0.0000000000000000  0.5000000000000000  0.1272392890821408   F   F   F
  0.0000000000000000  0.5000000000000000  0.2570807374752775   T   T   T
  0.0000000000000000  0.5000000000000000  0.3967232970186885   T   T   T
  0.0000000000000000  0.0000000000000000  0.0636196445410704   F   F   F
  0.0000000000000000  0.0000000000000000  0.1908589336232112   F   F   F
  0.0000000000000000  0.0000000000000000  0.3228423361921031   T   T   T
  0.0000000000000000  0.0000000000000000  0.4695647021020334   T   T   T
  0.0000000000000000  0.0000000000000000  0.5162110501239709   T   T   T
 
  0.00000000E+00  0.00000000E+00  0.00000000E+00
  0.00000000E+00  0.00000000E+00  0.00000000E+00
  0.00000000E+00  0.00000000E+00  0.00000000E+00
  0.00000000E+00  0.00000000E+00  0.00000000E+00
  0.00000000E+00  0.00000000E+00  0.00000000E+00
  0.00000000E+00  0.00000000E+00  0.00000000E+00
  0.00000000E+00  0.00000000E+00  0.00000000E+00
  0.00000000E+00  0.00000000E+00  0.00000000E+00
  0.00000000E+00  0.00000000E+00  0.00000000E+00
  0.00000000E+00  0.00000000E+00  0.00000000E+00
  0.00000000E+00  0.00000000E+00  0.00000000E+00
  0.00000000E+00  0.00000000E+00  0.00000000E+00
  0.00000000E+00  0.00000000E+00  0.00000000E+00
  0.00000000E+00  0.00000000E+00  0.00000000E+00
  0.00000000E+00  0.00000000E+00  0.00000000E+00
  0.00000000E+00  0.00000000E+00  0.00000000E+00
  0.00000000E+00  0.00000000E+00  0.00000000E+00
  0.00000000E+00  0.00000000E+00  0.00000000E+00
  0.00000000E+00  0.00000000E+00  0.00000000E+00
  0.00000000E+00  0.00000000E+00  0.00000000E+00
  0.00000000E+00  0.00000000E+00  0.00000000E+00
