Sr1 Fe1 O3                              
   1.00000000000000     
     3.8868081692463581    0.0000000000000000   -0.0000000000000004
     0.0000000000000000    3.8868081692463581    0.0000000000000000
     0.0000000000000001    0.0000000000000001   30.5472326769854305
   Sr   Fe   O 
     4     4    13
Selective dynamics
Direct
  0.5000000000000000  0.5000000000000000  0.0636196445410704   F   F   F
  0.5000000000000000  0.5000000000000000  0.1908589336232112   F   F   F
  0.5000000000000000  0.5000000000000000  0.3198848792262737   T   T   T
  0.5000000000000000  0.5000000000000000  0.4446884804674687   T   T   T
  0.0000000000000000  0.0000000000000000  0.0000000000000000   F   F   F
  0.0000000000000000  0.0000000000000000  0.1272392890821408   F   F   F
  0.0000000000000000  0.0000000000000000  0.2557620011445980   T   T   T
  0.0000000000000000  0.0000000000000000  0.3845871148637727   T   T   T
  0.5000000000000000  0.0000000000000000  0.0000000000000000   F   F   F
  0.5000000000000000  0.0000000000000000  0.1272392890821408   F   F   F
  0.5000000000000000  0.0000000000000000  0.2555083323059268   T   T   T
  0.5000000000000000  0.0000000000000000  0.3834677790984722   T   T   T
  0.0000000000000000  0.5000000000000000  0.0000000000000000   F   F   F
  0.0000000000000000  0.5000000000000000  0.1272392890821408   F   F   F
  0.0000000000000000  0.5000000000000000  0.2555083323059268   T   T   T
  0.0000000000000000  0.5000000000000000  0.3834677790984722   T   T   T
  0.0000000000000000  0.0000000000000000  0.0636196445410704   F   F   F
  0.0000000000000000  0.0000000000000000  0.1908589336232112   F   F   F
  0.0000000000000000  0.0000000000000000  0.3206451554296387   T   T   T
  0.0000000000000000  0.0000000000000000  0.4452638915039731   T   T   T
  0.5000000000000000  0.5000000000000000  0.5292147421794700   T   T   T
 
  0.00000000E+00  0.00000000E+00  0.00000000E+00
  0.00000000E+00  0.00000000E+00  0.00000000E+00
  0.00000000E+00  0.00000000E+00  0.00000000E+00
  0.00000000E+00  0.00000000E+00  0.00000000E+00
  0.00000000E+00  0.00000000E+00  0.00000000E+00
  0.00000000E+00  0.00000000E+00  0.00000000E+00
  0.00000000E+00  0.00000000E+00  0.00000000E+00
  0.00000000E+00  0.00000000E+00  0.00000000E+00
  0.00000000E+00  0.00000000E+00  0.00000000E+00
  0.00000000E+00  0.00000000E+00  0.00000000E+00
  0.00000000E+00  0.00000000E+00  0.00000000E+00
  0.00000000E+00  0.00000000E+00  0.00000000E+00
  0.00000000E+00  0.00000000E+00  0.00000000E+00
  0.00000000E+00  0.00000000E+00  0.00000000E+00
  0.00000000E+00  0.00000000E+00  0.00000000E+00
  0.00000000E+00  0.00000000E+00  0.00000000E+00
  0.00000000E+00  0.00000000E+00  0.00000000E+00
  0.00000000E+00  0.00000000E+00  0.00000000E+00
  0.00000000E+00  0.00000000E+00  0.00000000E+00
  0.00000000E+00  0.00000000E+00  0.00000000E+00
  0.00000000E+00  0.00000000E+00  0.00000000E+00
