Zr O                                    
   18.0000000000000     
     1.0000000000000000    0.0000000000000000    0.0000000000000000
     0.0000000000000000    1.0000000000000000    0.0000000000000000
     0.0000000000000000    0.0000000000000000    1.0000000000000000
   Zr   O 
    38     1
Selective dynamics
Direct
  0.7455716380154713  0.6218902675164623  0.5011253735712896   T   T   T
  0.6250403038229906  0.7450469644574211  0.5000260495440610   T   T   T
  0.2497483528583947  0.6299002738430136  0.4991395560127014   T   T   T
  0.3698095306998139  0.7494154737154863  0.5064316384147213   T   T   T
  0.2547205301708810  0.3740702909085578  0.4992101132020747   T   T   T
  0.3770662054728066  0.2536864296911027  0.5009663936728544   T   T   T
  0.7493416302896496  0.3692511454275635  0.4993934137844595   T   T   T
  0.6289380186301164  0.2506471025245462  0.5058672251338920   T   T   T
  0.6884567554469097  0.4958472376314039  0.5988754415356402   T   T   T
  0.3103375039211247  0.5025032095442262  0.5976966754317143   T   T   T
  0.4990761827086122  0.6881537863078017  0.5983257630351071   T   T   T
  0.5002744924706248  0.3121416634741789  0.5983183320983853   T   T   T
  0.6761907645842282  0.6695793116424690  0.6197078742272126   T   T   T
  0.3245010193791836  0.6810170737501781  0.6197162548090569   T   T   T
  0.3248055048911025  0.3281621802497655  0.6188872764268749   T   T   T
  0.6748930404935970  0.3180824553376058  0.6193502245868527   T   T   T
  0.6899831710557343  0.4966839474689588  0.4026330287239004   T   T   T
  0.3092670119116372  0.5025946545349093  0.4027543601862186   T   T   T
  0.4961703454680078  0.6916252940316462  0.4066730088996996   T   T   T
  0.5042139144031371  0.3096259512507019  0.4052671300616010   T   T   T
  0.6694253417445453  0.6730312673528435  0.3762991790133713   T   T   T
  0.3181949769222336  0.6750714140897833  0.3818641858358885   T   T   T
  0.3310036817782466  0.3274152785444073  0.3752659774187200   T   T   T
  0.6806216351602979  0.3236340318903816  0.3821550767432592   T   T   T
  0.5870985536357425  0.5863633439105177  0.6945861774336277   T   T   T
  0.4137827668661440  0.5859050714678931  0.6944841687856225   T   T   T
  0.4116663455784660  0.4135919666404731  0.6949959288695939   T   T   T
  0.5856151602712802  0.4134257531208776  0.6950593282828629   T   T   T
  0.5872135206541974  0.5926071331467123  0.3084018450974447   T   T   T
  0.4070058252900966  0.5901946241875476  0.3114435473970942   T   T   T
  0.4131541032043421  0.4101003508656627  0.3084395972565295   T   T   T
  0.5937885372775441  0.4138383254119440  0.3117091770683532   T   T   T
  0.4994191795032437  0.4998927115469144  0.5984191253485931   T   T   T
  0.4124282911886107  0.4129957170174146  0.4997010375158709   T   T   T
  0.4091620693075688  0.5900935099033686  0.5013140682424539   T   T   T
  0.4997119677994354  0.5013081726769177  0.3968896919559721   T   T   T
  0.5872872511122502  0.5869572692876941  0.5007704675435110   T   T   T
  0.5899109150669806  0.4100333099329826  0.5011568516365006   T   T   T
  0.5001039609447064  0.4986160356976608  0.7306794351964021   T   T   T
 
  0.00000000E+00  0.00000000E+00  0.00000000E+00
  0.00000000E+00  0.00000000E+00  0.00000000E+00
  0.00000000E+00  0.00000000E+00  0.00000000E+00
  0.00000000E+00  0.00000000E+00  0.00000000E+00
  0.00000000E+00  0.00000000E+00  0.00000000E+00
  0.00000000E+00  0.00000000E+00  0.00000000E+00
  0.00000000E+00  0.00000000E+00  0.00000000E+00
  0.00000000E+00  0.00000000E+00  0.00000000E+00
  0.00000000E+00  0.00000000E+00  0.00000000E+00
  0.00000000E+00  0.00000000E+00  0.00000000E+00
  0.00000000E+00  0.00000000E+00  0.00000000E+00
  0.00000000E+00  0.00000000E+00  0.00000000E+00
  0.00000000E+00  0.00000000E+00  0.00000000E+00
  0.00000000E+00  0.00000000E+00  0.00000000E+00
  0.00000000E+00  0.00000000E+00  0.00000000E+00
  0.00000000E+00  0.00000000E+00  0.00000000E+00
  0.00000000E+00  0.00000000E+00  0.00000000E+00
  0.00000000E+00  0.00000000E+00  0.00000000E+00
  0.00000000E+00  0.00000000E+00  0.00000000E+00
  0.00000000E+00  0.00000000E+00  0.00000000E+00
  0.00000000E+00  0.00000000E+00  0.00000000E+00
  0.00000000E+00  0.00000000E+00  0.00000000E+00
  0.00000000E+00  0.00000000E+00  0.00000000E+00
  0.00000000E+00  0.00000000E+00  0.00000000E+00
  0.00000000E+00  0.00000000E+00  0.00000000E+00
  0.00000000E+00  0.00000000E+00  0.00000000E+00
  0.00000000E+00  0.00000000E+00  0.00000000E+00
  0.00000000E+00  0.00000000E+00  0.00000000E+00
  0.00000000E+00  0.00000000E+00  0.00000000E+00
  0.00000000E+00  0.00000000E+00  0.00000000E+00
  0.00000000E+00  0.00000000E+00  0.00000000E+00
  0.00000000E+00  0.00000000E+00  0.00000000E+00
  0.00000000E+00  0.00000000E+00  0.00000000E+00
  0.00000000E+00  0.00000000E+00  0.00000000E+00
  0.00000000E+00  0.00000000E+00  0.00000000E+00
  0.00000000E+00  0.00000000E+00  0.00000000E+00
  0.00000000E+00  0.00000000E+00  0.00000000E+00
  0.00000000E+00  0.00000000E+00  0.00000000E+00
  0.00000000E+00  0.00000000E+00  0.00000000E+00
