Pt O                                    
   18.0000000000000     
     1.0000000000000000    0.0000000000000000    0.0000000000000000
     0.0000000000000000    1.0000000000000000    0.0000000000000000
     0.0000000000000000    0.0000000000000000    1.0000000000000000
   Pt   O 
    38     1
Selective dynamics
Direct
  0.7225743036839489  0.5730999011407789  0.5002032588581216   T   T   T
  0.5731009261848570  0.7225740272551775  0.5002030398136839   T   T   T
  0.2776826553012413  0.5732836120428502  0.5000876530715175   T   T   T
  0.4264900117966022  0.7222494550817657  0.5003257941322445   T   T   T
  0.2775210651691040  0.4266972944147156  0.4996715766794111   T   T   T
  0.4266965558454672  0.2775214516064679  0.4996717708246621   T   T   T
  0.7222490365500818  0.4264893322307941  0.5003260361347444   T   T   T
  0.5732826340047268  0.2776825418607842  0.5000879756276078   T   T   T
  0.6689687504774469  0.4999517265186881  0.6181817687066342   T   T   T
  0.3305264516564463  0.4995549423376744  0.6177708341808597   T   T   T
  0.4999523045572118  0.6689689328145079  0.6181818070478968   T   T   T
  0.4995542259650563  0.3305267985655860  0.6177707835668613   T   T   T
  0.6485953461681149  0.6485948257838530  0.6077533226574943   T   T   T
  0.3517908301489499  0.6478783755629465  0.6086719020038629   T   T   T
  0.3509591352826149  0.3509598133812162  0.6078569228585380   T   T   T
  0.6478776125672425  0.3517905520786542  0.6086719152430717   T   T   T
  0.6666958227347948  0.4999225977132085  0.3814202999345540   T   T   T
  0.3332466810369112  0.5002376081582085  0.3810648337762643   T   T   T
  0.4999233071450604  0.6666958687963316  0.3814199546675070   T   T   T
  0.5002371488534649  0.3332467807156263  0.3810652829118624   T   T   T
  0.6482227830439200  0.6482221317939647  0.3940873513034475   T   T   T
  0.3514783660499461  0.6486583939651496  0.3938591573441954   T   T   T
  0.3517315500589717  0.3517319818439546  0.3936519164143633   T   T   T
  0.6486578172108324  0.3514779075615735  0.3938597138235096   T   T   T
  0.5763897407528447  0.5763894884095606  0.7082644817576309   T   T   T
  0.4247308501041474  0.5749149253633874  0.7083752970872439   T   T   T
  0.4232382453674504  0.4232385875372628  0.7083009749877647   T   T   T
  0.5749145535760505  0.4247307076921913  0.7083751543304260   T   T   T
  0.5750119685130386  0.5750113404263786  0.2893583153913326   T   T   T
  0.4250183689532676  0.5752429545165967  0.2892183531006509   T   T   T
  0.4251645620048379  0.4251644053524259  0.2892768831499097   T   T   T
  0.5752430181334134  0.4250177946490226  0.2892188407004284   T   T   T
  0.4998883421515785  0.4998883592398684  0.6026691684793448   T   T   T
  0.4258037392111476  0.4258039677071537  0.4997206806873749   T   T   T
  0.4258564182628106  0.5740084798261904  0.4997290300649269   T   T   T
  0.4999890782057506  0.4999889014761294  0.3941265386325341   T   T   T
  0.5740580018676624  0.5740576099724137  0.4997767650210676   T   T   T
  0.5740082734792580  0.4258560820517516  0.4997291501813734   T   T   T
  0.4976695179236827  0.4976695425551867  0.7719954948450649   T   T   T
 
  0.00000000E+00  0.00000000E+00  0.00000000E+00
  0.00000000E+00  0.00000000E+00  0.00000000E+00
  0.00000000E+00  0.00000000E+00  0.00000000E+00
  0.00000000E+00  0.00000000E+00  0.00000000E+00
  0.00000000E+00  0.00000000E+00  0.00000000E+00
  0.00000000E+00  0.00000000E+00  0.00000000E+00
  0.00000000E+00  0.00000000E+00  0.00000000E+00
  0.00000000E+00  0.00000000E+00  0.00000000E+00
  0.00000000E+00  0.00000000E+00  0.00000000E+00
  0.00000000E+00  0.00000000E+00  0.00000000E+00
  0.00000000E+00  0.00000000E+00  0.00000000E+00
  0.00000000E+00  0.00000000E+00  0.00000000E+00
  0.00000000E+00  0.00000000E+00  0.00000000E+00
  0.00000000E+00  0.00000000E+00  0.00000000E+00
  0.00000000E+00  0.00000000E+00  0.00000000E+00
  0.00000000E+00  0.00000000E+00  0.00000000E+00
  0.00000000E+00  0.00000000E+00  0.00000000E+00
  0.00000000E+00  0.00000000E+00  0.00000000E+00
  0.00000000E+00  0.00000000E+00  0.00000000E+00
  0.00000000E+00  0.00000000E+00  0.00000000E+00
  0.00000000E+00  0.00000000E+00  0.00000000E+00
  0.00000000E+00  0.00000000E+00  0.00000000E+00
  0.00000000E+00  0.00000000E+00  0.00000000E+00
  0.00000000E+00  0.00000000E+00  0.00000000E+00
  0.00000000E+00  0.00000000E+00  0.00000000E+00
  0.00000000E+00  0.00000000E+00  0.00000000E+00
  0.00000000E+00  0.00000000E+00  0.00000000E+00
  0.00000000E+00  0.00000000E+00  0.00000000E+00
  0.00000000E+00  0.00000000E+00  0.00000000E+00
  0.00000000E+00  0.00000000E+00  0.00000000E+00
  0.00000000E+00  0.00000000E+00  0.00000000E+00
  0.00000000E+00  0.00000000E+00  0.00000000E+00
  0.00000000E+00  0.00000000E+00  0.00000000E+00
  0.00000000E+00  0.00000000E+00  0.00000000E+00
  0.00000000E+00  0.00000000E+00  0.00000000E+00
  0.00000000E+00  0.00000000E+00  0.00000000E+00
  0.00000000E+00  0.00000000E+00  0.00000000E+00
  0.00000000E+00  0.00000000E+00  0.00000000E+00
  0.00000000E+00  0.00000000E+00  0.00000000E+00
