ALGO = Fast
EDIFF = 0.001
EDIFFG = -0.01
ENCUT = 300
IBRION = 1
ISIF = 0
ISMEAR = -5
ISPIN = 2
LDAU = True
LDAUJ = 0 0 0
LDAUL = 0 2 0
LDAUPRINT = 1
LDAUTYPE = 2
LDAUU = 0 5.3 0
LMAXMIX = 4
#LORBIT = 11
LREAL =Auto
LWAVE = False
NELM = 100
NSW = 99
PREC = Normal
SIGMA = 0.05
NCORE=4
