O                                       
   18.0000000000000     
     2.0000000000000000    0.0000000000000000    0.0000000000000000
     0.0000000000000000    2.0000000000000000    0.0000000000000000
     0.0000000000000000    0.0000000000000000    2.0000000000000000
   O 
     2
Selective dynamics
Direct
  0.1006265437156745  0.1002594301795257  0.0177336379601905   T   T   T
  0.0993734562843283  0.0997405698204772  0.2022663620398084   T   T   T
 
  0.00000000E+00  0.00000000E+00  0.00000000E+00
  0.00000000E+00  0.00000000E+00  0.00000000E+00
