Pt                                      
   16.0000000000000     
     1.0000000000000000    0.0000000000000000    0.0000000000000000
     0.0000000000000000    1.0000000000000000    0.0000000000000000
     0.0000000000000000    0.0000000000000000    1.0000000000000000
   Pt
    32
Selective dynamics
Direct
  0.3262874525031424  0.3262667795719782  0.3262859862386313   T   T   T
  0.4407983461115126  0.4408027341010429  0.3093479628364055   T   T   T
  0.4408022712730227  0.3094407684853682  0.4408112753385425   T   T   T
  0.3093964140159228  0.4408005479508916  0.4407966834742389   T   T   T
  0.5539192551558222  0.3226333394423908  0.3226611190926417   T   T   T
  0.6765042078679813  0.4452638040253824  0.3226186462495391   T   T   T
  0.6765242344484680  0.3225877661848357  0.4452428884674772   T   T   T
  0.5587946848160282  0.4404405424817325  0.4404389883279790   T   T   T
  0.3226319164690099  0.5539170821037290  0.3226087611419247   T   T   T
  0.4452597605938756  0.6764933423756915  0.3226191538115468   T   T   T
  0.4404049175277156  0.5588192843105790  0.4404267665528238   T   T   T
  0.3225998188596309  0.6765316197157665  0.4452502169621340   T   T   T
  0.5584176542750225  0.5584177913951028  0.3092906234049187   T   T   T
  0.6729220287297870  0.6729044380896222  0.3262945005958923   T   T   T
  0.6898470294455027  0.5583849910583318  0.4407797063487196   T   T   T
  0.5583880892271357  0.6898982333278361  0.4407803947219447   T   T   T
  0.3226515398859316  0.3226107906669133  0.5539226323456351   T   T   T
  0.4404311138313725  0.4404435294939952  0.5587614167824230   T   T   T
  0.4452489032587439  0.3226173901661820  0.6765249054309869   T   T   T
  0.3226495860537067  0.4452627938954989  0.6765398230297154   T   T   T
  0.5584512448439227  0.3092791507396389  0.5584377006938850   T   T   T
  0.6899322525604135  0.4407401219246187  0.5584044145183586   T   T   T
  0.6729281520695494  0.3262749800851295  0.6729607702085805   T   T   T
  0.5584161801733682  0.4407495613233165  0.6898530568988821   T   T   T
  0.3092697314015669  0.5584540663026882  0.5584284853068674   T   T   T
  0.4407430342048332  0.6899447246752880  0.5584101896107208   T   T   T
  0.4407620248781201  0.5584125997873494  0.6897608119565789   T   T   T
  0.3262785295854774  0.6729183339497734  0.6729784595283450   T   T   T
  0.5587663179201064  0.5587724352306397  0.5587401207333886   T   T   T
  0.6765212735583921  0.6764983483553388  0.5539268304148602   T   T   T
  0.6765235960839360  0.5539247543397762  0.6765425135958539   T   T   T
  0.5539284383710098  0.6764933544436027  0.6765541953795752   T   T   T
 
  0.00000000E+00  0.00000000E+00  0.00000000E+00
  0.00000000E+00  0.00000000E+00  0.00000000E+00
  0.00000000E+00  0.00000000E+00  0.00000000E+00
  0.00000000E+00  0.00000000E+00  0.00000000E+00
  0.00000000E+00  0.00000000E+00  0.00000000E+00
  0.00000000E+00  0.00000000E+00  0.00000000E+00
  0.00000000E+00  0.00000000E+00  0.00000000E+00
  0.00000000E+00  0.00000000E+00  0.00000000E+00
  0.00000000E+00  0.00000000E+00  0.00000000E+00
  0.00000000E+00  0.00000000E+00  0.00000000E+00
  0.00000000E+00  0.00000000E+00  0.00000000E+00
  0.00000000E+00  0.00000000E+00  0.00000000E+00
  0.00000000E+00  0.00000000E+00  0.00000000E+00
  0.00000000E+00  0.00000000E+00  0.00000000E+00
  0.00000000E+00  0.00000000E+00  0.00000000E+00
  0.00000000E+00  0.00000000E+00  0.00000000E+00
  0.00000000E+00  0.00000000E+00  0.00000000E+00
  0.00000000E+00  0.00000000E+00  0.00000000E+00
  0.00000000E+00  0.00000000E+00  0.00000000E+00
  0.00000000E+00  0.00000000E+00  0.00000000E+00
  0.00000000E+00  0.00000000E+00  0.00000000E+00
  0.00000000E+00  0.00000000E+00  0.00000000E+00
  0.00000000E+00  0.00000000E+00  0.00000000E+00
  0.00000000E+00  0.00000000E+00  0.00000000E+00
  0.00000000E+00  0.00000000E+00  0.00000000E+00
  0.00000000E+00  0.00000000E+00  0.00000000E+00
  0.00000000E+00  0.00000000E+00  0.00000000E+00
  0.00000000E+00  0.00000000E+00  0.00000000E+00
  0.00000000E+00  0.00000000E+00  0.00000000E+00
  0.00000000E+00  0.00000000E+00  0.00000000E+00
  0.00000000E+00  0.00000000E+00  0.00000000E+00
  0.00000000E+00  0.00000000E+00  0.00000000E+00
