Pt                                      
   16.0000000000000     
     1.0000000000000000    0.0000000000000000    0.0000000000000000
     0.0000000000000000    1.0000000000000000    0.0000000000000000
     0.0000000000000000    0.0000000000000000    1.0000000000000000
   Pt
    32
Selective dynamics
Direct
  0.3263494362142698  0.3263266485612102  0.3263520129213497   T   T   T
  0.4408117925847032  0.4407911741766597  0.3096024655193921   T   T   T
  0.4408280504276847  0.3096490919816645  0.4408291180151646   T   T   T
  0.3096070014985365  0.4407980282112963  0.4408180845164140   T   T   T
  0.5536395975837732  0.3226099843912107  0.3226592287573899   T   T   T
  0.6765520205704693  0.4455133768912916  0.3226334253436822   T   T   T
  0.6765109065570424  0.3226272703688898  0.4455700942558071   T   T   T
  0.5587895921626810  0.4404100020369558  0.4404097409837778   T   T   T
  0.3225986175446540  0.5536364873742506  0.3226001400582457   T   T   T
  0.4455202399934754  0.6765687955175428  0.3225864507659376   T   T   T
  0.4404248147575767  0.5587692327438616  0.4404177243368827   T   T   T
  0.3225786821440383  0.6765772525331102  0.4455224044747630   T   T   T
  0.5584038056679689  0.5583845316925546  0.3094928233129003   T   T   T
  0.6728998065867575  0.6728860771844620  0.3263255956132570   T   T   T
  0.6896258135553154  0.5583636858672359  0.4408092976475076   T   T   T
  0.5583908615378919  0.6896507432652117  0.4408013925214588   T   T   T
  0.3226491985897474  0.3226022923119099  0.5536157725427706   T   T   T
  0.4404103896926902  0.4404010420613437  0.5587863168480539   T   T   T
  0.4455945607178111  0.3226167154618081  0.6765223237824142   T   T   T
  0.3226122144603454  0.4455394941393072  0.6765736429128878   T   T   T
  0.5584045048682166  0.3096165823173401  0.5584031190305732   T   T   T
  0.6895557264285096  0.4407720485502191  0.5583977435004981   T   T   T
  0.6728433893866648  0.3263583311232352  0.6728451045988222   T   T   T
  0.5583927733829014  0.4407780353054956  0.6895497299744728   T   T   T
  0.3095134984111044  0.5583881270435541  0.5584070727597225   T   T   T
  0.4407891033771680  0.6896358370828821  0.5584030026340723   T   T   T
  0.4408039338408086  0.5583685630222678  0.6895984020307940   T   T   T
  0.3263290210185114  0.6728793656595314  0.6728977893654176   T   T   T
  0.5587707555968506  0.5587552029909461  0.5587586541253993   T   T   T
  0.6765820516642893  0.6765545171751195  0.5536681119764899   T   T   T
  0.6765500469234441  0.5536126777773185  0.6765528424392401   T   T   T
  0.5536677922541225  0.6765587851803364  0.6765903724344642   T   T   T
 
  0.00000000E+00  0.00000000E+00  0.00000000E+00
  0.00000000E+00  0.00000000E+00  0.00000000E+00
  0.00000000E+00  0.00000000E+00  0.00000000E+00
  0.00000000E+00  0.00000000E+00  0.00000000E+00
  0.00000000E+00  0.00000000E+00  0.00000000E+00
  0.00000000E+00  0.00000000E+00  0.00000000E+00
  0.00000000E+00  0.00000000E+00  0.00000000E+00
  0.00000000E+00  0.00000000E+00  0.00000000E+00
  0.00000000E+00  0.00000000E+00  0.00000000E+00
  0.00000000E+00  0.00000000E+00  0.00000000E+00
  0.00000000E+00  0.00000000E+00  0.00000000E+00
  0.00000000E+00  0.00000000E+00  0.00000000E+00
  0.00000000E+00  0.00000000E+00  0.00000000E+00
  0.00000000E+00  0.00000000E+00  0.00000000E+00
  0.00000000E+00  0.00000000E+00  0.00000000E+00
  0.00000000E+00  0.00000000E+00  0.00000000E+00
  0.00000000E+00  0.00000000E+00  0.00000000E+00
  0.00000000E+00  0.00000000E+00  0.00000000E+00
  0.00000000E+00  0.00000000E+00  0.00000000E+00
  0.00000000E+00  0.00000000E+00  0.00000000E+00
  0.00000000E+00  0.00000000E+00  0.00000000E+00
  0.00000000E+00  0.00000000E+00  0.00000000E+00
  0.00000000E+00  0.00000000E+00  0.00000000E+00
  0.00000000E+00  0.00000000E+00  0.00000000E+00
  0.00000000E+00  0.00000000E+00  0.00000000E+00
  0.00000000E+00  0.00000000E+00  0.00000000E+00
  0.00000000E+00  0.00000000E+00  0.00000000E+00
  0.00000000E+00  0.00000000E+00  0.00000000E+00
  0.00000000E+00  0.00000000E+00  0.00000000E+00
  0.00000000E+00  0.00000000E+00  0.00000000E+00
  0.00000000E+00  0.00000000E+00  0.00000000E+00
  0.00000000E+00  0.00000000E+00  0.00000000E+00
