La4 Mn4 O12                             
   1.00000000000000     
     5.5888246681338236    0.0000000000000000    0.0000000000000000
     0.0000000000000000    5.8300766121165228    0.0000000000000000
     0.0000000000000000    0.0000000000000000    7.7859163948065406
   La   Mn   O 
     4     4    12
Direct
  0.0109185874754445  0.5543329711902416  0.2500000000000000
  0.5109185874754445  0.9456670288097584  0.7500000000000000
  0.4890814125245555  0.0543329711902416  0.2500000000000000
  0.9890814125245555  0.4456670288097584  0.7500000000000000
  0.5000000000000000  0.5000000000000000  0.5000000000000000
  0.0000000000000000  0.0000000000000000  0.5000000000000000
  0.5000000000000000  0.5000000000000000  0.0000000000000000
  0.0000000000000000  0.0000000000000000  0.0000000000000000
  0.7217280741532761  0.1929544681765734  0.5445799599814052
  0.2782719258467310  0.8070455318234266  0.0445799599814052
  0.7782719258467239  0.6929544681765734  0.5445799599814052
  0.9132784881471565  0.9801334669934363  0.2500000000000000
  0.2217280741532690  0.3070455318234266  0.0445799599814052
  0.7782719258467239  0.6929544681765734  0.9554200400185948
  0.4132784881471565  0.5198665330065637  0.7500000000000000
  0.2782719258467310  0.8070455318234266  0.4554200400185948
  0.0867215118528435  0.0198665330065637  0.7500000000000000
  0.5867215118528435  0.4801334669934292  0.2500000000000000
  0.2217280741532690  0.3070455318234266  0.4554200400185948
  0.7217280741532761  0.1929544681765734  0.9554200400185948
 
  0.00000000E+00  0.00000000E+00  0.00000000E+00
  0.00000000E+00  0.00000000E+00  0.00000000E+00
  0.00000000E+00  0.00000000E+00  0.00000000E+00
  0.00000000E+00  0.00000000E+00  0.00000000E+00
  0.00000000E+00  0.00000000E+00  0.00000000E+00
  0.00000000E+00  0.00000000E+00  0.00000000E+00
  0.00000000E+00  0.00000000E+00  0.00000000E+00
  0.00000000E+00  0.00000000E+00  0.00000000E+00
  0.00000000E+00  0.00000000E+00  0.00000000E+00
  0.00000000E+00  0.00000000E+00  0.00000000E+00
  0.00000000E+00  0.00000000E+00  0.00000000E+00
  0.00000000E+00  0.00000000E+00  0.00000000E+00
  0.00000000E+00  0.00000000E+00  0.00000000E+00
  0.00000000E+00  0.00000000E+00  0.00000000E+00
  0.00000000E+00  0.00000000E+00  0.00000000E+00
  0.00000000E+00  0.00000000E+00  0.00000000E+00
  0.00000000E+00  0.00000000E+00  0.00000000E+00
  0.00000000E+00  0.00000000E+00  0.00000000E+00
  0.00000000E+00  0.00000000E+00  0.00000000E+00
  0.00000000E+00  0.00000000E+00  0.00000000E+00
