La4 Mn4 O12                             
   1.00000000000000     
     5.5888246681338236    0.0000000000000000    0.0000000000000000
     0.0000000000000000    5.8300766121165228    0.0000000000000000
     0.0000000000000000    0.0000000000000000    7.7859163948065406
   La   Mn   O 
     4     4    12
Direct
  0.0109185874754436  0.5543329711902427  0.2500000000000000
  0.5109185874754436  0.9456670288097573  0.7500000000000000
  0.4890814125245564  0.0543329711902427  0.2500000000000000
  0.9890814125245564  0.4456670288097573  0.7500000000000000
  0.5000000000000000  0.5000000000000000  0.5000000000000000
  0.0000000000000000  0.0000000000000000  0.5000000000000000
  0.5000000000000000  0.5000000000000000  0.0000000000000000
  0.0000000000000000  0.0000000000000000  0.0000000000000000
  0.7217280741532782  0.1929544681765752  0.5445799599814019
  0.2782719258467289  0.8070455318234249  0.0445799599814019
  0.7782719258467218  0.6929544681765751  0.5445799599814019
  0.9132784881471594  0.9801334669934328  0.2500000000000000
  0.2217280741532711  0.3070455318234249  0.0445799599814019
  0.7782719258467218  0.6929544681765751  0.9554200400185981
  0.4132784881471593  0.5198665330065672  0.7500000000000000
  0.2782719258467289  0.8070455318234249  0.4554200400185981
  0.0867215118528407  0.0198665330065672  0.7500000000000000
  0.5867215118528406  0.4801334669934327  0.2500000000000000
  0.2217280741532711  0.3070455318234249  0.4554200400185981
  0.7217280741532782  0.1929544681765752  0.9554200400185981
 
  0.00000000E+00  0.00000000E+00  0.00000000E+00
  0.00000000E+00  0.00000000E+00  0.00000000E+00
  0.00000000E+00  0.00000000E+00  0.00000000E+00
  0.00000000E+00  0.00000000E+00  0.00000000E+00
  0.00000000E+00  0.00000000E+00  0.00000000E+00
  0.00000000E+00  0.00000000E+00  0.00000000E+00
  0.00000000E+00  0.00000000E+00  0.00000000E+00
  0.00000000E+00  0.00000000E+00  0.00000000E+00
  0.00000000E+00  0.00000000E+00  0.00000000E+00
  0.00000000E+00  0.00000000E+00  0.00000000E+00
  0.00000000E+00  0.00000000E+00  0.00000000E+00
  0.00000000E+00  0.00000000E+00  0.00000000E+00
  0.00000000E+00  0.00000000E+00  0.00000000E+00
  0.00000000E+00  0.00000000E+00  0.00000000E+00
  0.00000000E+00  0.00000000E+00  0.00000000E+00
  0.00000000E+00  0.00000000E+00  0.00000000E+00
  0.00000000E+00  0.00000000E+00  0.00000000E+00
  0.00000000E+00  0.00000000E+00  0.00000000E+00
  0.00000000E+00  0.00000000E+00  0.00000000E+00
  0.00000000E+00  0.00000000E+00  0.00000000E+00
