Pt Pd O                                 
   18.0000000000000     
     1.0000000000000000    0.0000000000000000    0.0000000000000000
     0.0000000000000000    1.0000000000000000    0.0000000000000000
     0.0000000000000000    0.0000000000000000    1.0000000000000000
   Pt   Pd   O 
    32     6     1
Selective dynamics
Direct
  0.7264827134592493  0.5706068657013958  0.4950652799352631   T   T   T
  0.5706071919150173  0.7264827328463536  0.4950650760037143   T   T   T
  0.2794155785776020  0.5760163582580394  0.5033141542207289   T   T   T
  0.4231377514429324  0.7208083942442309  0.5038058483295961   T   T   T
  0.2769511750583110  0.4280102712380890  0.4969635281211139   T   T   T
  0.4280102210982116  0.2769512818359480  0.4969636983733026   T   T   T
  0.7208081836591597  0.4231374519737728  0.5038061700699714   T   T   T
  0.5760163259888539  0.2794156211135027  0.5033144661364304   T   T   T
  0.6623161284317948  0.5040379319036662  0.6130721528111939   T   T   T
  0.3365237801184198  0.4960283927153634  0.6140047697641285   T   T   T
  0.5040379878711064  0.6623163134420181  0.6130719323870624   T   T   T
  0.4960281889544105  0.3365238913852571  0.6140049605124291   T   T   T
  0.6560144375986193  0.6560143517900771  0.5940379352793125   T   T   T
  0.3585788821474917  0.6417143297117166  0.6176354496589519   T   T   T
  0.3457884775974095  0.3457885968332551  0.6035016364054707   T   T   T
  0.6417141297002928  0.3585788456186230  0.6176358928812018   T   T   T
  0.6610449886692569  0.4967019634364507  0.3850165492403720   T   T   T
  0.3387347734762375  0.5034174966560929  0.3842618376071293   T   T   T
  0.4967022463445918  0.6610448909713409  0.3850164211436132   T   T   T
  0.5034175152336795  0.3387346458231585  0.3842619558109359   T   T   T
  0.6453255507340017  0.6453252779412190  0.3919490813598397   T   T   T
  0.3478047492599914  0.6526145801440710  0.3934239426475555   T   T   T
  0.3546926291883513  0.3546925675062074  0.3911314292853694   T   T   T
  0.6526145994765155  0.3478044730057830  0.3934241503127303   T   T   T
  0.5901537538380830  0.5901539735591297  0.7054291568054424   T   T   T
  0.4395636324754379  0.5699723624620070  0.7154559187805686   T   T   T
  0.4141173418214086  0.4141176141431964  0.7091125936610593   T   T   T
  0.5699720536760123  0.4395638552594296  0.7154560964874979   T   T   T
  0.5711515151453609  0.5711512837617919  0.2896768312766785   T   T   T
  0.4216569113679016  0.5800024787490746  0.2863462526029629   T   T   T
  0.4293198120525995  0.4293196762957198  0.2894243190486278   T   T   T
  0.5800025936520048  0.4216567213466836  0.2863462601104639   T   T   T
  0.4990020581728130  0.4990021733078354  0.6037242756308839   T   T   T
  0.4255980030691636  0.4255980359775560  0.4991874150981268   T   T   T
  0.4257420450963072  0.5739111842790169  0.5001343725225454   T   T   T
  0.4999029968577694  0.4999029063129004  0.3942659257224735   T   T   T
  0.5741396718279859  0.5741395760521640  0.4987610519279059   T   T   T
  0.5739111012060805  0.4257419884005032  0.5001345105053729   T   T   T
  0.4779983037395759  0.4779986439973565  0.7767967015219833   T   T   T
 
  0.00000000E+00  0.00000000E+00  0.00000000E+00
  0.00000000E+00  0.00000000E+00  0.00000000E+00
  0.00000000E+00  0.00000000E+00  0.00000000E+00
  0.00000000E+00  0.00000000E+00  0.00000000E+00
  0.00000000E+00  0.00000000E+00  0.00000000E+00
  0.00000000E+00  0.00000000E+00  0.00000000E+00
  0.00000000E+00  0.00000000E+00  0.00000000E+00
  0.00000000E+00  0.00000000E+00  0.00000000E+00
  0.00000000E+00  0.00000000E+00  0.00000000E+00
  0.00000000E+00  0.00000000E+00  0.00000000E+00
  0.00000000E+00  0.00000000E+00  0.00000000E+00
  0.00000000E+00  0.00000000E+00  0.00000000E+00
  0.00000000E+00  0.00000000E+00  0.00000000E+00
  0.00000000E+00  0.00000000E+00  0.00000000E+00
  0.00000000E+00  0.00000000E+00  0.00000000E+00
  0.00000000E+00  0.00000000E+00  0.00000000E+00
  0.00000000E+00  0.00000000E+00  0.00000000E+00
  0.00000000E+00  0.00000000E+00  0.00000000E+00
  0.00000000E+00  0.00000000E+00  0.00000000E+00
  0.00000000E+00  0.00000000E+00  0.00000000E+00
  0.00000000E+00  0.00000000E+00  0.00000000E+00
  0.00000000E+00  0.00000000E+00  0.00000000E+00
  0.00000000E+00  0.00000000E+00  0.00000000E+00
  0.00000000E+00  0.00000000E+00  0.00000000E+00
  0.00000000E+00  0.00000000E+00  0.00000000E+00
  0.00000000E+00  0.00000000E+00  0.00000000E+00
  0.00000000E+00  0.00000000E+00  0.00000000E+00
  0.00000000E+00  0.00000000E+00  0.00000000E+00
  0.00000000E+00  0.00000000E+00  0.00000000E+00
  0.00000000E+00  0.00000000E+00  0.00000000E+00
  0.00000000E+00  0.00000000E+00  0.00000000E+00
  0.00000000E+00  0.00000000E+00  0.00000000E+00
  0.00000000E+00  0.00000000E+00  0.00000000E+00
  0.00000000E+00  0.00000000E+00  0.00000000E+00
  0.00000000E+00  0.00000000E+00  0.00000000E+00
  0.00000000E+00  0.00000000E+00  0.00000000E+00
  0.00000000E+00  0.00000000E+00  0.00000000E+00
  0.00000000E+00  0.00000000E+00  0.00000000E+00
  0.00000000E+00  0.00000000E+00  0.00000000E+00
