Pt Pd O                                 
   18.0000000000000     
     1.0000000000000000    0.0000000000000000    0.0000000000000000
     0.0000000000000000    1.0000000000000000    0.0000000000000000
     0.0000000000000000    0.0000000000000000    1.0000000000000000
  32   6   1
Selective dynamics
Direct
  0.7264843651288062  0.5706092198772925  0.4950662265349601   T   T   T
  0.5706095558506817  0.7264843838391398  0.4950660480886195   T   T   T
  0.2794143203033462  0.5760152532433770  0.5033137417791131   T   T   T
  0.4231399359338639  0.7208101376894572  0.5038047010574147   T   T   T
  0.2769489277540793  0.4280087373845104  0.4969651528318979   T   T   T
  0.4280087372320203  0.2769490078006759  0.4969652924695017   T   T   T
  0.7208099519407756  0.4231396502017983  0.5038050463097665   T   T   T
  0.5760151599889048  0.2794143485231086  0.5033140380953253   T   T   T
  0.6623163335283885  0.5040382604772465  0.6130712062770073   T   T   T
  0.3365240709262591  0.4960287528463697  0.6140043082401530   T   T   T
  0.5040383144234660  0.6623164509874538  0.6130709717352081   T   T   T
  0.4960285514346481  0.3365242104715808  0.6140044854499519   T   T   T
  0.6560142902291276  0.6560142274107732  0.5940396649629248   T   T   T
  0.3585790291647780  0.6417154208978950  0.6176321835210781   T   T   T
  0.3457879184299112  0.3457880761820132  0.6035022827719670   T   T   T
  0.6417152181131317  0.3585789672219493  0.6176326661121857   T   T   T
  0.6610453597288432  0.4967043242957499  0.3850174462801416   T   T   T
  0.3387340465695388  0.5034154867042303  0.3842632758880589   T   T   T
  0.4967045892096868  0.6610452857905057  0.3850173173240103   T   T   T
  0.5034155160450928  0.3387339397667653  0.3842633901134459   T   T   T
  0.6453281633698437  0.6453278688450715  0.3919502998662332   T   T   T
  0.3478070362505686  0.6526127768970815  0.3934249657346343   T   T   T
  0.3546898831018025  0.3546898219005560  0.3911333647832985   T   T   T
  0.6526127840581311  0.3478067810623324  0.3934251196486598   T   T   T
  0.5901522038821388  0.5901524064725187  0.7054287088288682   T   T   T
  0.4395612921255591  0.5699716471966846  0.7154531671403531   T   T   T
  0.4141173957085179  0.4141176714265333  0.7091120501151780   T   T   T
  0.5699713449452609  0.4395614850177131  0.7154533854401036   T   T   T
  0.5711544634518071  0.5711542506378593  0.2896777121402946   T   T   T
  0.4216591981827878  0.5799997023021338  0.2863490844877574   T   T   T
  0.4293165263179597  0.4293164042948561  0.2894250508161126   T   T   T
  0.5799998194312233  0.4216589625351069  0.2863491698759879   T   T   T
  0.4990025840769721  0.4990027160928877  0.6037220573036907   T   T   T
  0.4255965323498352  0.4255965845757924  0.4991878893751895   T   T   T
  0.4257425592928130  0.5739110996733739  0.5001332299637270   T   T   T
  0.4999028524504158  0.4999027584281613  0.3942657606365946   T   T   T
  0.5741413707998473  0.5741412937057190  0.4987604187901794   T   T   T
  0.5739110306809145  0.4257425064485319  0.5001333816985063   T   T   T
  0.4779987675882496  0.4779991208751915  0.7767957375118957   T   T   T
 
  0.00000000E+00  0.00000000E+00  0.00000000E+00
  0.00000000E+00  0.00000000E+00  0.00000000E+00
  0.00000000E+00  0.00000000E+00  0.00000000E+00
  0.00000000E+00  0.00000000E+00  0.00000000E+00
  0.00000000E+00  0.00000000E+00  0.00000000E+00
  0.00000000E+00  0.00000000E+00  0.00000000E+00
  0.00000000E+00  0.00000000E+00  0.00000000E+00
  0.00000000E+00  0.00000000E+00  0.00000000E+00
  0.00000000E+00  0.00000000E+00  0.00000000E+00
  0.00000000E+00  0.00000000E+00  0.00000000E+00
  0.00000000E+00  0.00000000E+00  0.00000000E+00
  0.00000000E+00  0.00000000E+00  0.00000000E+00
  0.00000000E+00  0.00000000E+00  0.00000000E+00
  0.00000000E+00  0.00000000E+00  0.00000000E+00
  0.00000000E+00  0.00000000E+00  0.00000000E+00
  0.00000000E+00  0.00000000E+00  0.00000000E+00
  0.00000000E+00  0.00000000E+00  0.00000000E+00
  0.00000000E+00  0.00000000E+00  0.00000000E+00
  0.00000000E+00  0.00000000E+00  0.00000000E+00
  0.00000000E+00  0.00000000E+00  0.00000000E+00
  0.00000000E+00  0.00000000E+00  0.00000000E+00
  0.00000000E+00  0.00000000E+00  0.00000000E+00
  0.00000000E+00  0.00000000E+00  0.00000000E+00
  0.00000000E+00  0.00000000E+00  0.00000000E+00
  0.00000000E+00  0.00000000E+00  0.00000000E+00
  0.00000000E+00  0.00000000E+00  0.00000000E+00
  0.00000000E+00  0.00000000E+00  0.00000000E+00
  0.00000000E+00  0.00000000E+00  0.00000000E+00
  0.00000000E+00  0.00000000E+00  0.00000000E+00
  0.00000000E+00  0.00000000E+00  0.00000000E+00
  0.00000000E+00  0.00000000E+00  0.00000000E+00
  0.00000000E+00  0.00000000E+00  0.00000000E+00
  0.00000000E+00  0.00000000E+00  0.00000000E+00
  0.00000000E+00  0.00000000E+00  0.00000000E+00
  0.00000000E+00  0.00000000E+00  0.00000000E+00
  0.00000000E+00  0.00000000E+00  0.00000000E+00
  0.00000000E+00  0.00000000E+00  0.00000000E+00
  0.00000000E+00  0.00000000E+00  0.00000000E+00
  0.00000000E+00  0.00000000E+00  0.00000000E+00
