Zr 
6
1    0    0
0    1    0
0    0    1
1
Selective dynamics
Direct
0.5 0.5 0.5 T T T
