Zr O                                    
   18.0000000000000     
     1.0000000000000000    0.0000000000000000    0.0000000000000000
     0.0000000000000000    1.0000000000000000    0.0000000000000000
     0.0000000000000000    0.0000000000000000    1.0000000000000000
   Zr   O 
    38     1
Selective dynamics
Direct
  0.7459108729011932  0.6264210414769684  0.5093190340405953   T   T   T
  0.6219225764898020  0.7445920423413889  0.5058179378842547   T   T   T
  0.2548825876199916  0.6154262013489791  0.5055018788274336   T   T   T
  0.3727295591533737  0.7425699415022515  0.5098957987604150   T   T   T
  0.2524780248338383  0.3810889839459762  0.5095988032665143   T   T   T
  0.3718698090609294  0.2554280910621559  0.5084536586605118   T   T   T
  0.7486770377173954  0.3844961761026766  0.5068367060957581   T   T   T
  0.6318904677701884  0.2557543419904361  0.5119921813309736   T   T   T
  0.6904285964060562  0.4944789218109306  0.5906989531306821   T   T   T
  0.3107635563798474  0.5006417250010475  0.5928973428114944   T   T   T
  0.5042927247508346  0.6840283291395650  0.5961605466218612   T   T   T
  0.4935668364134248  0.3118847477865286  0.5934101338702390   T   T   T
  0.6856515556957423  0.6660961234638179  0.6161958705386329   T   T   T
  0.3268034099345558  0.6818928255999644  0.6142674865699925   T   T   T
  0.3141105736435286  0.3318843089026401  0.6170507940957628   T   T   T
  0.6714755405746804  0.3172654519796586  0.6162557789825247   T   T   T
  0.6885711772372498  0.4987682851749494  0.4047729866375124   T   T   T
  0.3120206262706468  0.5023354156618743  0.4023345832664076   T   T   T
  0.5020565821187155  0.6871348128764150  0.4043306519615896   T   T   T
  0.4989008280418945  0.3061831953102090  0.3996349346988852   T   T   T
  0.6731117518379270  0.6756868489525321  0.3799518491984215   T   T   T
  0.3277051374282196  0.6761603182385012  0.3778872912822229   T   T   T
  0.3250404531748777  0.3238287016895378  0.3798197998764871   T   T   T
  0.6777581575350781  0.3265977165737299  0.3803293846626070   T   T   T
  0.5745843509675492  0.5929896697453075  0.6894246293770426   T   T   T
  0.4086181223371554  0.5779893598761741  0.7016543796266244   T   T   T
  0.4228361548092566  0.4070055905991276  0.6890243096988790   T   T   T
  0.5906898003304577  0.4221457717191611  0.7010916695525576   T   T   T
  0.5903593760992524  0.6016559880763430  0.3141014204649244   T   T   T
  0.4003215174437215  0.5934035851769260  0.3129447771320384   T   T   T
  0.3961975986329431  0.4072052655779238  0.3134761295947384   T   T   T
  0.6101428337475086  0.4124941559868049  0.3129187382962311   T   T   T
  0.4999879428166463  0.4984138092023571  0.5970271228976641   T   T   T
  0.4120766211253079  0.4116247373833876  0.4951178036217617   T   T   T
  0.4134665130410867  0.5868537615538115  0.4954800369833479   T   T   T
  0.4997604789111301  0.4979338736596609  0.3859075640513742   T   T   T
  0.5880584796538950  0.5853065331069275  0.4969783384602929   T   T   T
  0.5866663345752064  0.4100728933066626  0.4949369477375746   T   T   T
  0.4986154325188532  0.4992604570966673  0.7305017454331564   T   T   T
 
  0.00000000E+00  0.00000000E+00  0.00000000E+00
  0.00000000E+00  0.00000000E+00  0.00000000E+00
  0.00000000E+00  0.00000000E+00  0.00000000E+00
  0.00000000E+00  0.00000000E+00  0.00000000E+00
  0.00000000E+00  0.00000000E+00  0.00000000E+00
  0.00000000E+00  0.00000000E+00  0.00000000E+00
  0.00000000E+00  0.00000000E+00  0.00000000E+00
  0.00000000E+00  0.00000000E+00  0.00000000E+00
  0.00000000E+00  0.00000000E+00  0.00000000E+00
  0.00000000E+00  0.00000000E+00  0.00000000E+00
  0.00000000E+00  0.00000000E+00  0.00000000E+00
  0.00000000E+00  0.00000000E+00  0.00000000E+00
  0.00000000E+00  0.00000000E+00  0.00000000E+00
  0.00000000E+00  0.00000000E+00  0.00000000E+00
  0.00000000E+00  0.00000000E+00  0.00000000E+00
  0.00000000E+00  0.00000000E+00  0.00000000E+00
  0.00000000E+00  0.00000000E+00  0.00000000E+00
  0.00000000E+00  0.00000000E+00  0.00000000E+00
  0.00000000E+00  0.00000000E+00  0.00000000E+00
  0.00000000E+00  0.00000000E+00  0.00000000E+00
  0.00000000E+00  0.00000000E+00  0.00000000E+00
  0.00000000E+00  0.00000000E+00  0.00000000E+00
  0.00000000E+00  0.00000000E+00  0.00000000E+00
  0.00000000E+00  0.00000000E+00  0.00000000E+00
  0.00000000E+00  0.00000000E+00  0.00000000E+00
  0.00000000E+00  0.00000000E+00  0.00000000E+00
  0.00000000E+00  0.00000000E+00  0.00000000E+00
  0.00000000E+00  0.00000000E+00  0.00000000E+00
  0.00000000E+00  0.00000000E+00  0.00000000E+00
  0.00000000E+00  0.00000000E+00  0.00000000E+00
  0.00000000E+00  0.00000000E+00  0.00000000E+00
  0.00000000E+00  0.00000000E+00  0.00000000E+00
  0.00000000E+00  0.00000000E+00  0.00000000E+00
  0.00000000E+00  0.00000000E+00  0.00000000E+00
  0.00000000E+00  0.00000000E+00  0.00000000E+00
  0.00000000E+00  0.00000000E+00  0.00000000E+00
  0.00000000E+00  0.00000000E+00  0.00000000E+00
  0.00000000E+00  0.00000000E+00  0.00000000E+00
  0.00000000E+00  0.00000000E+00  0.00000000E+00
