ALGO = Fast
EDIFF = 0.0001
EDIFFG = -0.01
ENCUT = 300
IBRION = 2
ICHARG = 1
ISIF = 0
ISMEAR = 0 #-5
ISPIN = 2
LDAU = True
LDAUJ = 0 0 0
LDAUL = 0 2 0
LDAUPRINT = 1
LDAUTYPE = 2
LDAUU = 0 5.3 0
LMAXMIX = 4
LREAL = Auto  #.False. 
LWAVE = False
NELM = 100
NSW = 99
SIGMA = 0.05
NCORE=4
PREC=Normal
IDIPOL=3
LDIPOL=.TRUE. 
LVTOT=.TRUE.
