Zr                                      
   18.0000000000000     
     1.0000000000000000    0.0000000000000000    0.0000000000000000
     0.0000000000000000    1.0000000000000000    0.0000000000000000
     0.0000000000000000    0.0000000000000000    1.0000000000000000
   Zr
    38
Selective dynamics
Direct
  0.7339184116880495  0.6247145178531093  0.4952110106711690   T   T   T
  0.6160221434627816  0.7442685989964363  0.4953407068176107   T   T   T
  0.2347242475986256  0.6022666911568910  0.5032098099220128   T   T   T
  0.4474093711892265  0.7466948481097780  0.5008720337584944   T   T   T
  0.2514393266283358  0.4532965801963636  0.5005446342478771   T   T   T
  0.4529738299413917  0.2559795677614987  0.5005177254617147   T   T   T
  0.7425378222808502  0.3723451035599512  0.4991888846352834   T   T   T
  0.6284805461473468  0.2479105885917971  0.5024901091948046   T   T   T
  0.6818026144233965  0.4969349707875561  0.5901362825155652   T   T   T
  0.3081223357166368  0.5067954770532173  0.6251123825290213   T   T   T
  0.4949808055308777  0.6891052669451918  0.6198615990172837   T   T   T
  0.5099113919822439  0.3017308854929075  0.6215102540386034   T   T   T
  0.6662170144046041  0.6691433185476579  0.6190944765981058   T   T   T
  0.3235593353393862  0.6812608089897424  0.5917566279251967   T   T   T
  0.3422151838414131  0.3288257901434868  0.6191246972797982   T   T   T
  0.6761562637724474  0.3247807942585961  0.6210747862520077   T   T   T
  0.6755094942330724  0.4975642232209009  0.4102912356835688   T   T   T
  0.3108946666904220  0.5107379197343187  0.3769961468415879   T   T   T
  0.4925615587992397  0.6858409530069489  0.3794004949254998   T   T   T
  0.5101929183420419  0.3118084628682106  0.3793556231404127   T   T   T
  0.6606076338343442  0.6640203473179551  0.3728793373642049   T   T   T
  0.3230895513824052  0.6812381152206251  0.4131178401961911   T   T   T
  0.3539222785203590  0.3513473121910531  0.3740291800812643   T   T   T
  0.6781403179684771  0.3253107360010916  0.3819921994566836   T   T   T
  0.5814779252200942  0.5768705056758709  0.6887695565467985   T   T   T
  0.3995996634894757  0.5839824290274477  0.6951936897119503   T   T   T
  0.4093818175292755  0.4037526398715033  0.7027613606762482   T   T   T
  0.5831217640617975  0.4120699726088886  0.6954804898271507   T   T   T
  0.5714787115885077  0.5711970665463346  0.3050923619071368   T   T   T
  0.4007717035118500  0.5866526589746660  0.3032492656821083   T   T   T
  0.4149527956243682  0.4126280129197676  0.2798652779081356   T   T   T
  0.5876469874022004  0.4128325393396329  0.3041693905732022   T   T   T
  0.4938202463045056  0.4966701520205150  0.6020451168720790   T   T   T
  0.4073514354492077  0.4077411046936593  0.5121843674558220   T   T   T
  0.4018242941012720  0.5795085485172616  0.5024557861574314   T   T   T
  0.4833053409454223  0.4869071957918816  0.4044902663482404   T   T   T
  0.5704777014212257  0.5911834256940867  0.5004748642104839   T   T   T
  0.5767310317091039  0.4014123277580090  0.5026646327241621   T   T   T
 
  0.00000000E+00  0.00000000E+00  0.00000000E+00
  0.00000000E+00  0.00000000E+00  0.00000000E+00
  0.00000000E+00  0.00000000E+00  0.00000000E+00
  0.00000000E+00  0.00000000E+00  0.00000000E+00
  0.00000000E+00  0.00000000E+00  0.00000000E+00
  0.00000000E+00  0.00000000E+00  0.00000000E+00
  0.00000000E+00  0.00000000E+00  0.00000000E+00
  0.00000000E+00  0.00000000E+00  0.00000000E+00
  0.00000000E+00  0.00000000E+00  0.00000000E+00
  0.00000000E+00  0.00000000E+00  0.00000000E+00
  0.00000000E+00  0.00000000E+00  0.00000000E+00
  0.00000000E+00  0.00000000E+00  0.00000000E+00
  0.00000000E+00  0.00000000E+00  0.00000000E+00
  0.00000000E+00  0.00000000E+00  0.00000000E+00
  0.00000000E+00  0.00000000E+00  0.00000000E+00
  0.00000000E+00  0.00000000E+00  0.00000000E+00
  0.00000000E+00  0.00000000E+00  0.00000000E+00
  0.00000000E+00  0.00000000E+00  0.00000000E+00
  0.00000000E+00  0.00000000E+00  0.00000000E+00
  0.00000000E+00  0.00000000E+00  0.00000000E+00
  0.00000000E+00  0.00000000E+00  0.00000000E+00
  0.00000000E+00  0.00000000E+00  0.00000000E+00
  0.00000000E+00  0.00000000E+00  0.00000000E+00
  0.00000000E+00  0.00000000E+00  0.00000000E+00
  0.00000000E+00  0.00000000E+00  0.00000000E+00
  0.00000000E+00  0.00000000E+00  0.00000000E+00
  0.00000000E+00  0.00000000E+00  0.00000000E+00
  0.00000000E+00  0.00000000E+00  0.00000000E+00
  0.00000000E+00  0.00000000E+00  0.00000000E+00
  0.00000000E+00  0.00000000E+00  0.00000000E+00
  0.00000000E+00  0.00000000E+00  0.00000000E+00
  0.00000000E+00  0.00000000E+00  0.00000000E+00
  0.00000000E+00  0.00000000E+00  0.00000000E+00
  0.00000000E+00  0.00000000E+00  0.00000000E+00
  0.00000000E+00  0.00000000E+00  0.00000000E+00
  0.00000000E+00  0.00000000E+00  0.00000000E+00
  0.00000000E+00  0.00000000E+00  0.00000000E+00
  0.00000000E+00  0.00000000E+00  0.00000000E+00
