Zr                                      
   18.0000000000000     
     1.0000000000000000    0.0000000000000000    0.0000000000000000
     0.0000000000000000    1.0000000000000000    0.0000000000000000
     0.0000000000000000    0.0000000000000000    1.0000000000000000
   Zr
    38
Selective dynamics
Direct
  0.7369169842823418  0.6102867592954436  0.4952513405546055   T   T   T
  0.6233743782169054  0.7413737577241521  0.4946445718514999   T   T   T
  0.2393932741986663  0.6084434643495252  0.4967317625086107   T   T   T
  0.4472617372394676  0.7390951879962011  0.5041248643849726   T   T   T
  0.2435553182135249  0.4630428076372977  0.5168221415897716   T   T   T
  0.4538788131984076  0.2575122897092959  0.4771371270091758   T   T   T
  0.7422306568776443  0.3910261347864456  0.5003340289599711   T   T   T
  0.6301790307055062  0.2535719804912248  0.4951297404845634   T   T   T
  0.6799468456423736  0.4986722470639768  0.5908318851760732   T   T   T
  0.2984681726380678  0.5040934672760474  0.6304819644859669   T   T   T
  0.4987834651158892  0.6840301603874509  0.6172153948603002   T   T   T
  0.5029553725968591  0.3047283675815492  0.6184112102758108   T   T   T
  0.6693029151445549  0.6726626666900934  0.6177413772733855   T   T   T
  0.3301850691317140  0.6794134147856691  0.6136443136057965   T   T   T
  0.3225367315542231  0.3291264425865430  0.6356091342648007   T   T   T
  0.6716305270610535  0.3255493275063986  0.6224646363826727   T   T   T
  0.6737406140509081  0.4998137262769958  0.4061444533682289   T   T   T
  0.3045219853401019  0.5007365903794777  0.3764760250532137   T   T   T
  0.4923703756579658  0.6810877598740747  0.3811798093051396   T   T   T
  0.5165956221339100  0.3104380435065670  0.3707257682059498   T   T   T
  0.6617417971763255  0.6703644517751547  0.3750738543939168   T   T   T
  0.3312961420538456  0.6654367672341344  0.3915142188271123   T   T   T
  0.3592076992479071  0.3416720748011075  0.3655405898447885   T   T   T
  0.6802451210006240  0.3271738362004522  0.3816383387599919   T   T   T
  0.6008377531533731  0.5865146785130617  0.6924892623870720   T   T   T
  0.3887518918706822  0.6008365179538041  0.6974653650651842   T   T   T
  0.3926026341546707  0.3964847653460279  0.7072035092697997   T   T   T
  0.6031821109921727  0.4137559581292395  0.6938375889722466   T   T   T
  0.5756853600702118  0.5809106607043979  0.3058755421894059   T   T   T
  0.4105228884135975  0.5817373371479235  0.2857715859598850   T   T   T
  0.4143983039378732  0.4112724744474318  0.2757945746721070   T   T   T
  0.5946459546309174  0.4139841531619908  0.3036740494852748   T   T   T
  0.4907000190923075  0.4959520992622194  0.6227984891993760   T   T   T
  0.3957102292323477  0.4029999455088054  0.5194155773855594   T   T   T
  0.3970440754742134  0.5741645548790594  0.5101188989819794   T   T   T
  0.4800324991176474  0.4863217780672709  0.3996274657777958   T   T   T
  0.5696621654151244  0.5892224526218176  0.5009710612920819   T   T   T
  0.5732359480423473  0.4038213557864823  0.5020929830908331   T   T   T
 
  0.00000000E+00  0.00000000E+00  0.00000000E+00
  0.00000000E+00  0.00000000E+00  0.00000000E+00
  0.00000000E+00  0.00000000E+00  0.00000000E+00
  0.00000000E+00  0.00000000E+00  0.00000000E+00
  0.00000000E+00  0.00000000E+00  0.00000000E+00
  0.00000000E+00  0.00000000E+00  0.00000000E+00
  0.00000000E+00  0.00000000E+00  0.00000000E+00
  0.00000000E+00  0.00000000E+00  0.00000000E+00
  0.00000000E+00  0.00000000E+00  0.00000000E+00
  0.00000000E+00  0.00000000E+00  0.00000000E+00
  0.00000000E+00  0.00000000E+00  0.00000000E+00
  0.00000000E+00  0.00000000E+00  0.00000000E+00
  0.00000000E+00  0.00000000E+00  0.00000000E+00
  0.00000000E+00  0.00000000E+00  0.00000000E+00
  0.00000000E+00  0.00000000E+00  0.00000000E+00
  0.00000000E+00  0.00000000E+00  0.00000000E+00
  0.00000000E+00  0.00000000E+00  0.00000000E+00
  0.00000000E+00  0.00000000E+00  0.00000000E+00
  0.00000000E+00  0.00000000E+00  0.00000000E+00
  0.00000000E+00  0.00000000E+00  0.00000000E+00
  0.00000000E+00  0.00000000E+00  0.00000000E+00
  0.00000000E+00  0.00000000E+00  0.00000000E+00
  0.00000000E+00  0.00000000E+00  0.00000000E+00
  0.00000000E+00  0.00000000E+00  0.00000000E+00
  0.00000000E+00  0.00000000E+00  0.00000000E+00
  0.00000000E+00  0.00000000E+00  0.00000000E+00
  0.00000000E+00  0.00000000E+00  0.00000000E+00
  0.00000000E+00  0.00000000E+00  0.00000000E+00
  0.00000000E+00  0.00000000E+00  0.00000000E+00
  0.00000000E+00  0.00000000E+00  0.00000000E+00
  0.00000000E+00  0.00000000E+00  0.00000000E+00
  0.00000000E+00  0.00000000E+00  0.00000000E+00
  0.00000000E+00  0.00000000E+00  0.00000000E+00
  0.00000000E+00  0.00000000E+00  0.00000000E+00
  0.00000000E+00  0.00000000E+00  0.00000000E+00
  0.00000000E+00  0.00000000E+00  0.00000000E+00
  0.00000000E+00  0.00000000E+00  0.00000000E+00
  0.00000000E+00  0.00000000E+00  0.00000000E+00
