Pt                                      
   18.0000000000000     
     1.0000000000000000    0.0000000000000000    0.0000000000000000
     0.0000000000000000    1.0000000000000000    0.0000000000000000
     0.0000000000000000    0.0000000000000000    1.0000000000000000
   Pt
    38
Selective dynamics
Direct
  0.7231968655425034  0.5731585044279757  0.4997819625329664   T   T   T
  0.5731566179598503  0.7231976044088014  0.4997822636179893   T   T   T
  0.2769289359756387  0.5733794235642169  0.4998242704174158   T   T   T
  0.4263828232679636  0.7229758497413646  0.5000528286908811   T   T   T
  0.2767513789245897  0.4266248403041044  0.4993289447582865   T   T   T
  0.4266245178996164  0.2767535596374351  0.4993289640485843   T   T   T
  0.7229765229811522  0.4263831481229589  0.5000534633669594   T   T   T
  0.5733741047218071  0.2769280774784849  0.4998245831440606   T   T   T
  0.6663636786111529  0.5000670976908040  0.6177819077353408   T   T   T
  0.3333621111574505  0.4995682284890650  0.6175721790114957   T   T   T
  0.5000693910795415  0.6663622997161703  0.6177809591196064   T   T   T
  0.4995695601301792  0.3333631230327758  0.6175695656166146   T   T   T
  0.6484913561611954  0.6484915050015317  0.6056935554948052   T   T   T
  0.3518736838310104  0.6477992175453020  0.6061929370718867   T   T   T
  0.3511960038561568  0.3511958629262477  0.6053659100076815   T   T   T
  0.6477969328493228  0.3518737205600065  0.6061950743899170   T   T   T
  0.6663688586709119  0.4998544819742847  0.3821334724845123   T   T   T
  0.3336798657764134  0.5001697733702136  0.3818219746300085   T   T   T
  0.4998568795477010  0.6663679245503783  0.3821335467868949   T   T   T
  0.5001712234461660  0.3336802826303770  0.3818250366322367   T   T   T
  0.6481523794482569  0.6481525841466794  0.3938751916819016   T   T   T
  0.3515650436535177  0.6484366257932243  0.3936007607989316   T   T   T
  0.3518671763690887  0.3518668701350612  0.3933095877705165   T   T   T
  0.6484338655894856  0.3515647696335185  0.3936000811861219   T   T   T
  0.5752334490441323  0.5752341025732082  0.7098386008181117   T   T   T
  0.4252972384896052  0.5742694649678914  0.7098607874949462   T   T   T
  0.4243181231303948  0.4243183955364525  0.7097445551075121   T   T   T
  0.5742666777161901  0.4252982933360546  0.7098605556509296   T   T   T
  0.5748706504607692  0.5748705248688489  0.2899662693605796   T   T   T
  0.4250579641830527  0.5751562022369759  0.2896954402425925   T   T   T
  0.4253461339816843  0.4253454278205657  0.2896618770351154   T   T   T
  0.5751546733272903  0.4250578391080629  0.2896974962026233   T   T   T
  0.4998419352970574  0.4998403143663380  0.6047841544469786   T   T   T
  0.4258731924951240  0.4258714499887051  0.4997627326573407   T   T   T
  0.4259364013020253  0.5739268332350227  0.4998602848631566   T   T   T
  0.5000123726874014  0.5000099654374607  0.3949870952878441   T   T   T
  0.5739840482399006  0.5739821559987084  0.4999952401447584   T   T   T
  0.5739278442709584  0.4259341130895548  0.4998603948468126   T   T   T
 
  0.00000000E+00  0.00000000E+00  0.00000000E+00
  0.00000000E+00  0.00000000E+00  0.00000000E+00
  0.00000000E+00  0.00000000E+00  0.00000000E+00
  0.00000000E+00  0.00000000E+00  0.00000000E+00
  0.00000000E+00  0.00000000E+00  0.00000000E+00
  0.00000000E+00  0.00000000E+00  0.00000000E+00
  0.00000000E+00  0.00000000E+00  0.00000000E+00
  0.00000000E+00  0.00000000E+00  0.00000000E+00
  0.00000000E+00  0.00000000E+00  0.00000000E+00
  0.00000000E+00  0.00000000E+00  0.00000000E+00
  0.00000000E+00  0.00000000E+00  0.00000000E+00
  0.00000000E+00  0.00000000E+00  0.00000000E+00
  0.00000000E+00  0.00000000E+00  0.00000000E+00
  0.00000000E+00  0.00000000E+00  0.00000000E+00
  0.00000000E+00  0.00000000E+00  0.00000000E+00
  0.00000000E+00  0.00000000E+00  0.00000000E+00
  0.00000000E+00  0.00000000E+00  0.00000000E+00
  0.00000000E+00  0.00000000E+00  0.00000000E+00
  0.00000000E+00  0.00000000E+00  0.00000000E+00
  0.00000000E+00  0.00000000E+00  0.00000000E+00
  0.00000000E+00  0.00000000E+00  0.00000000E+00
  0.00000000E+00  0.00000000E+00  0.00000000E+00
  0.00000000E+00  0.00000000E+00  0.00000000E+00
  0.00000000E+00  0.00000000E+00  0.00000000E+00
  0.00000000E+00  0.00000000E+00  0.00000000E+00
  0.00000000E+00  0.00000000E+00  0.00000000E+00
  0.00000000E+00  0.00000000E+00  0.00000000E+00
  0.00000000E+00  0.00000000E+00  0.00000000E+00
  0.00000000E+00  0.00000000E+00  0.00000000E+00
  0.00000000E+00  0.00000000E+00  0.00000000E+00
  0.00000000E+00  0.00000000E+00  0.00000000E+00
  0.00000000E+00  0.00000000E+00  0.00000000E+00
  0.00000000E+00  0.00000000E+00  0.00000000E+00
  0.00000000E+00  0.00000000E+00  0.00000000E+00
  0.00000000E+00  0.00000000E+00  0.00000000E+00
  0.00000000E+00  0.00000000E+00  0.00000000E+00
  0.00000000E+00  0.00000000E+00  0.00000000E+00
  0.00000000E+00  0.00000000E+00  0.00000000E+00
