Pt                                      
   18.0000000000000     
     1.0000000000000000    0.0000000000000000    0.0000000000000000
     0.0000000000000000    1.0000000000000000    0.0000000000000000
     0.0000000000000000    0.0000000000000000    1.0000000000000000
   Pt
    38
Selective dynamics
Direct
  0.7231965734966461  0.5731566748477865  0.4997795319377308   T   T   T
  0.5731547269463206  0.7231974397501495  0.4997798347312657   T   T   T
  0.2769304465274681  0.5733790279535651  0.4998233646555138   T   T   T
  0.4263831609792150  0.7229739463565834  0.5000521998871165   T   T   T
  0.2767514486890973  0.4266260599196772  0.4993276114200537   T   T   T
  0.4266261891074354  0.2767541021079042  0.4993276404744900   T   T   T
  0.7229744805800031  0.4263835882778663  0.5000528777847145   T   T   T
  0.5733730678473747  0.2769299943760039  0.4998236637090238   T   T   T
  0.6663674529361243  0.5000675564694873  0.6177860616273948   T   T   T
  0.3333587256809399  0.4995668355839818  0.6175774539077055   T   T   T
  0.5000702627387766  0.6663661369209486  0.6177851838167544   T   T   T
  0.4995685487428355  0.3333598376295409  0.6175744335605341   T   T   T
  0.6484914368310982  0.6484916608706490  0.6056893231956918   T   T   T
  0.3518768363459096  0.6477953940587176  0.6061910949187221   T   T   T
  0.3511961706245857  0.3511959158741170  0.6053624286201509   T   T   T
  0.6477927080305497  0.3518772206283986  0.6061932531070874   T   T   T
  0.6663679613821375  0.4998539738132720  0.3821316911920528   T   T   T
  0.3336800966068240  0.5001701443477305  0.3818196852645253   T   T   T
  0.4998567383064801  0.6663669537979908  0.3821316853487743   T   T   T
  0.5001718977007207  0.3336806080559795  0.3818233186735143   T   T   T
  0.6481506058404657  0.6481509730079932  0.3938718700280253   T   T   T
  0.3515664534234503  0.6484355626927171  0.3935971845247399   T   T   T
  0.3518685805749818  0.3518682415351573  0.3933072123703826   T   T   T
  0.6484324686494336  0.3515663814118745  0.3935964532879068   T   T   T
  0.5752373036699632  0.5752378518958673  0.7098418516208195   T   T   T
  0.4252975139023108  0.5742695261453407  0.7098648723176872   T   T   T
  0.4243145710422144  0.4243147979485761  0.7097492095976689   T   T   T
  0.5742666566100756  0.4252985904989318  0.7098642733904763   T   T   T
  0.5748690650645070  0.5748690789324408  0.2899659876940919   T   T   T
  0.4250597525160705  0.5751547085340549  0.2896940783245966   T   T   T
  0.4253476176800410  0.4253469426940322  0.2896609050540052   T   T   T
  0.5751531522409796  0.4250596223525244  0.2896963053942345   T   T   T
  0.4998421558115788  0.4998401683455252  0.6047839882531431   T   T   T
  0.4258760573110402  0.4258737381417949  0.4997649409609708   T   T   T
  0.4259394664693675  0.5739244604630461  0.4998620164502949   T   T   T
  0.5000129795735107  0.5000102442543235  0.3949918020446678   T   T   T
  0.5739817732837976  0.5739796337807354  0.4999970485972994   T   T   T
  0.5739253783119413  0.4259368631695258  0.4998621674110978   T   T   T
 
  0.00000000E+00  0.00000000E+00  0.00000000E+00
  0.00000000E+00  0.00000000E+00  0.00000000E+00
  0.00000000E+00  0.00000000E+00  0.00000000E+00
  0.00000000E+00  0.00000000E+00  0.00000000E+00
  0.00000000E+00  0.00000000E+00  0.00000000E+00
  0.00000000E+00  0.00000000E+00  0.00000000E+00
  0.00000000E+00  0.00000000E+00  0.00000000E+00
  0.00000000E+00  0.00000000E+00  0.00000000E+00
  0.00000000E+00  0.00000000E+00  0.00000000E+00
  0.00000000E+00  0.00000000E+00  0.00000000E+00
  0.00000000E+00  0.00000000E+00  0.00000000E+00
  0.00000000E+00  0.00000000E+00  0.00000000E+00
  0.00000000E+00  0.00000000E+00  0.00000000E+00
  0.00000000E+00  0.00000000E+00  0.00000000E+00
  0.00000000E+00  0.00000000E+00  0.00000000E+00
  0.00000000E+00  0.00000000E+00  0.00000000E+00
  0.00000000E+00  0.00000000E+00  0.00000000E+00
  0.00000000E+00  0.00000000E+00  0.00000000E+00
  0.00000000E+00  0.00000000E+00  0.00000000E+00
  0.00000000E+00  0.00000000E+00  0.00000000E+00
  0.00000000E+00  0.00000000E+00  0.00000000E+00
  0.00000000E+00  0.00000000E+00  0.00000000E+00
  0.00000000E+00  0.00000000E+00  0.00000000E+00
  0.00000000E+00  0.00000000E+00  0.00000000E+00
  0.00000000E+00  0.00000000E+00  0.00000000E+00
  0.00000000E+00  0.00000000E+00  0.00000000E+00
  0.00000000E+00  0.00000000E+00  0.00000000E+00
  0.00000000E+00  0.00000000E+00  0.00000000E+00
  0.00000000E+00  0.00000000E+00  0.00000000E+00
  0.00000000E+00  0.00000000E+00  0.00000000E+00
  0.00000000E+00  0.00000000E+00  0.00000000E+00
  0.00000000E+00  0.00000000E+00  0.00000000E+00
  0.00000000E+00  0.00000000E+00  0.00000000E+00
  0.00000000E+00  0.00000000E+00  0.00000000E+00
  0.00000000E+00  0.00000000E+00  0.00000000E+00
  0.00000000E+00  0.00000000E+00  0.00000000E+00
  0.00000000E+00  0.00000000E+00  0.00000000E+00
  0.00000000E+00  0.00000000E+00  0.00000000E+00
