Pt                                   
   18.0000000000000     
     1.0000000000000000    0.0000000000000000    0.0000000000000000
     0.0000000000000000    1.0000000000000000    0.0000000000000000
     0.0000000000000000    0.0000000000000000    1.0000000000000000
  38  
Selective dynamics
Direct
  0.7225743036839455  0.5730999011407819  0.5002032588581241   T   T   T
  0.5731009261848541  0.7225740272551804  0.5002030398136837   T   T   T
  0.2776826553012424  0.5732836120428478  0.5000876530715206   T   T   T
  0.4264900117965999  0.7222494550817654  0.5003257941322466   T   T   T
  0.2775210651691049  0.4266972944147157  0.4996715766794108   T   T   T
  0.4266965558454695  0.2775214516064686  0.4996717708246649   T   T   T
  0.7222490365500827  0.4264893322307931  0.5003260361347476   T   T   T
  0.5732826340047296  0.2776825418607843  0.5000879756276083   T   T   T
  0.6689687504774479  0.4999517265186896  0.6181817687066364   T   T   T
  0.3305264516564491  0.4995549423376729  0.6177708341808604   T   T   T
  0.4999523045572121  0.6689689328145084  0.6181818070478954   T   T   T
  0.4995542259650567  0.3305267985655891  0.6177707835668609   T   T   T
  0.6485953461681178  0.6485948257838506  0.6077533226574933   T   T   T
  0.3517908301489523  0.6478783755629495  0.6086719020038599   T   T   T
  0.3509591352826181  0.3509598133812185  0.6078569228585398   T   T   T
  0.6478776125672409  0.3517905520786548  0.6086719152430707   T   T   T
  0.6666958227347979  0.4999225977132072  0.3814202999345561   T   T   T
  0.3332466810369148  0.5002376081582111  0.3810648337762674   T   T   T
  0.4999233071450633  0.6666958687963283  0.3814199546675073   T   T   T
  0.5002371488534650  0.3332467807156256  0.3810652829118641   T   T   T
  0.6482227830439166  0.6482221317939642  0.3940873513034483   T   T   T
  0.3514783660499476  0.6486583939651476  0.3938591573441924   T   T   T
  0.3517315500589701  0.3517319818439534  0.3936519164143652   T   T   T
  0.6486578172108337  0.3514779075615720  0.3938597138235091   T   T   T
  0.5763897407528478  0.5763894884095621  0.7082644817576277   T   T   T
  0.4247308501041493  0.5749149253633905  0.7083752970872406   T   T   T
  0.4232382453674536  0.4232385875372613  0.7083009749877676   T   T   T
  0.5749145535760498  0.4247307076921914  0.7083751543304282   T   T   T
  0.5750119685130364  0.5750113404263800  0.2893583153913356   T   T   T
  0.4250183689532708  0.5752429545165935  0.2892183531006490   T   T   T
  0.4251645620048378  0.4251644053524241  0.2892768831499127   T   T   T
  0.5752430181334133  0.4250177946490207  0.2892188407004295   T   T   T
  0.4998883421515804  0.4998883592398711  0.6026691684793456   T   T   T
  0.4258037392111494  0.4258039677071526  0.4997206806873770   T   T   T
  0.4258564182628113  0.5740084798261869  0.4997290300649244   T   T   T
  0.4999890782057506  0.4999889014761326  0.3941265386325349   T   T   T
  0.5740580018676658  0.5740576099724159  0.4997767650210697   T   T   T
  0.5740082734792605  0.4258560820517550  0.4997291501813756   T   T   T
   
  0.00000000E+00  0.00000000E+00  0.00000000E+00
  0.00000000E+00  0.00000000E+00  0.00000000E+00
  0.00000000E+00  0.00000000E+00  0.00000000E+00
  0.00000000E+00  0.00000000E+00  0.00000000E+00
  0.00000000E+00  0.00000000E+00  0.00000000E+00
  0.00000000E+00  0.00000000E+00  0.00000000E+00
  0.00000000E+00  0.00000000E+00  0.00000000E+00
  0.00000000E+00  0.00000000E+00  0.00000000E+00
  0.00000000E+00  0.00000000E+00  0.00000000E+00
  0.00000000E+00  0.00000000E+00  0.00000000E+00
  0.00000000E+00  0.00000000E+00  0.00000000E+00
  0.00000000E+00  0.00000000E+00  0.00000000E+00
  0.00000000E+00  0.00000000E+00  0.00000000E+00
  0.00000000E+00  0.00000000E+00  0.00000000E+00
  0.00000000E+00  0.00000000E+00  0.00000000E+00
  0.00000000E+00  0.00000000E+00  0.00000000E+00
  0.00000000E+00  0.00000000E+00  0.00000000E+00
  0.00000000E+00  0.00000000E+00  0.00000000E+00
  0.00000000E+00  0.00000000E+00  0.00000000E+00
  0.00000000E+00  0.00000000E+00  0.00000000E+00
  0.00000000E+00  0.00000000E+00  0.00000000E+00
  0.00000000E+00  0.00000000E+00  0.00000000E+00
  0.00000000E+00  0.00000000E+00  0.00000000E+00
  0.00000000E+00  0.00000000E+00  0.00000000E+00
  0.00000000E+00  0.00000000E+00  0.00000000E+00
  0.00000000E+00  0.00000000E+00  0.00000000E+00
  0.00000000E+00  0.00000000E+00  0.00000000E+00
  0.00000000E+00  0.00000000E+00  0.00000000E+00
  0.00000000E+00  0.00000000E+00  0.00000000E+00
  0.00000000E+00  0.00000000E+00  0.00000000E+00
  0.00000000E+00  0.00000000E+00  0.00000000E+00
  0.00000000E+00  0.00000000E+00  0.00000000E+00
  0.00000000E+00  0.00000000E+00  0.00000000E+00
  0.00000000E+00  0.00000000E+00  0.00000000E+00
  0.00000000E+00  0.00000000E+00  0.00000000E+00
  0.00000000E+00  0.00000000E+00  0.00000000E+00
  0.00000000E+00  0.00000000E+00  0.00000000E+00
  0.00000000E+00  0.00000000E+00  0.00000000E+00
  0.00000000E+00  0.00000000E+00  0.00000000E+00
