Pt                                      
   16.0000000000000     
     1.0000000000000000    0.0000000000000000    0.0000000000000000
     0.0000000000000000    1.0000000000000000    0.0000000000000000
     0.0000000000000000    0.0000000000000000    1.0000000000000000
   Pt
    32
Selective dynamics
Direct
  0.3182246458719450  0.3082414918452067  0.3372985683307211   T   T   T
  0.4372406296835745  0.4360314146010403  0.3179283356033703   T   T   T
  0.4332593622144851  0.2944395852810340  0.4431884313510151   T   T   T
  0.2976644403840958  0.4461453542151065  0.4118687522801545   T   T   T
  0.5538547381165019  0.3267368689618935  0.3444050586973940   T   T   T
  0.6913876151658359  0.4347823648445723  0.3511101796857366   T   T   T
  0.6932989876493844  0.3293841483926589  0.4754685304013557   T   T   T
  0.5650860974195473  0.4314060010892476  0.4624781577965759   T   T   T
  0.3519188592252313  0.5821085876396496  0.3027685019489318   T   T   T
  0.4874866177565902  0.6754885133209193  0.2838303173070448   T   T   T
  0.4302164864670863  0.5477451997737440  0.4402485676620543   T   T   T
  0.2792208268753463  0.6278427005708085  0.4383812313422901   T   T   T
  0.5655739624771339  0.5394096882041736  0.3254861410553322   T   T   T
  0.6506364430657928  0.6842628935256291  0.3372033943519852   T   T   T
  0.6836959353586938  0.5664205750804908  0.4454845871566951   T   T   T
  0.5201190946912194  0.6829790290395890  0.4414315304105900   T   T   T
  0.3217595314134594  0.3489851801252320  0.5533320007214280   T   T   T
  0.4463761300643420  0.4473802729514176  0.5684595260218402   T   T   T
  0.4622768245883989  0.3307710109165665  0.6735975830853073   T   T   T
  0.3492390800882387  0.4500280311501142  0.7014359728119401   T   T   T
  0.5508394619578160  0.2869881297403009  0.5457011230998162   T   T   T
  0.6990266688134908  0.4586729792950632  0.5780734966679013   T   T   T
  0.6671487570569467  0.3143983572921419  0.6526800030318843   T   T   T
  0.5717434364714589  0.4577763524950492  0.6883901896259761   T   T   T
  0.2908256688475710  0.5215164882283472  0.5608866139771606   T   T   T
  0.3924214628920209  0.6668946285664142  0.5517242789704727   T   T   T
  0.4612477469819693  0.5916451175442087  0.6840652592058390   T   T   T
  0.3041024949129534  0.6213968354498005  0.6853445978261078   T   T   T
  0.5610754913885574  0.5708576671511072  0.5564532890077430   T   T   T
  0.6658234336691389  0.7158734766981617  0.5049380681418846   T   T   T
  0.6943348539791642  0.5858564945495557  0.6747659717406391   T   T   T
  0.5898742144520314  0.7045345614607887  0.6485717406828321   T   T   T
 
 -0.11586573E-03 -0.37531029E-04  0.17784961E-04
 -0.18208598E-03  0.11449115E-03  0.59854232E-04
  0.53660897E-04  0.14745604E-03 -0.98717849E-04
  0.31283776E-04  0.53247350E-03 -0.11226499E-03
  0.22592684E-03  0.26660332E-03  0.64091123E-04
  0.34504180E-03  0.98956849E-04 -0.86132651E-04
  0.10441511E-03 -0.23754572E-03 -0.11661792E-03
 -0.10816080E-03  0.10021746E-03 -0.11740925E-03
 -0.44296372E-03  0.47320520E-03  0.34490909E-03
 -0.35373663E-04  0.14460443E-03  0.16870312E-03
 -0.35046973E-03 -0.98592047E-03  0.14214138E-03
 -0.11845703E-03 -0.81913088E-04  0.34525214E-03
  0.19851631E-03  0.87829693E-05  0.30166606E-03
  0.28147302E-03 -0.17247695E-03  0.63610351E-04
  0.10440317E-02 -0.48593582E-03  0.86610823E-03
 -0.17206921E-03  0.71356558E-03  0.37304603E-04
  0.28655381E-03 -0.11226584E-03 -0.44689464E-04
  0.54635379E-04  0.13766538E-03 -0.17027344E-03
 -0.13073578E-03 -0.94453022E-04  0.14089420E-04
 -0.15658089E-03  0.12569015E-03 -0.37923559E-03
 -0.25681676E-03 -0.44751577E-03 -0.88750141E-04
 -0.72398850E-04 -0.75479100E-04 -0.63160988E-03
  0.89875200E-04 -0.20374190E-03 -0.19517276E-03
 -0.18528843E-03  0.10150879E-03 -0.10516946E-03
  0.10405293E-05 -0.28099789E-03  0.26904626E-03
 -0.74129820E-05 -0.33457838E-04  0.14116582E-03
  0.98894530E-04  0.88669341E-04  0.10025228E-03
  0.14734781E-03  0.42652476E-03  0.22457025E-03
 -0.15815062E-03  0.11901349E-03 -0.32775842E-03
 -0.47317225E-03 -0.16565707E-03 -0.58392069E-03
 -0.12997191E-04 -0.27633413E-03 -0.17590162E-04
  0.16302873E-04  0.91797235E-04 -0.85236661E-04
 
           1
   2.10000000000000     
  0.10000000E+01  0.00000000E+00  0.00000000E+00  0.00000000E+00
  0.31822465E+00  0.30824149E+00  0.33729857E+00
  0.43724063E+00  0.43603141E+00  0.31792834E+00
  0.43325936E+00  0.29443959E+00  0.44318843E+00
  0.29766444E+00  0.44614535E+00  0.41186875E+00
  0.55385474E+00  0.32673687E+00  0.34440506E+00
  0.69138762E+00  0.43478236E+00  0.35111018E+00
  0.69329899E+00  0.32938415E+00  0.47546853E+00
  0.56508610E+00  0.43140600E+00  0.46247816E+00
  0.35191886E+00  0.58210859E+00  0.30276850E+00
  0.48748662E+00  0.67548851E+00  0.28383032E+00
  0.43021649E+00  0.54774520E+00  0.44024857E+00
  0.27922083E+00  0.62784270E+00  0.43838123E+00
  0.56557396E+00  0.53940969E+00  0.32548614E+00
  0.65063644E+00  0.68426289E+00  0.33720339E+00
  0.68369594E+00  0.56642058E+00  0.44548459E+00
  0.52011909E+00  0.68297903E+00  0.44143153E+00
  0.32175953E+00  0.34898518E+00  0.55333200E+00
  0.44637613E+00  0.44738027E+00  0.56845953E+00
  0.46227682E+00  0.33077101E+00  0.67359758E+00
  0.34923908E+00  0.45002803E+00  0.70143597E+00
  0.55083946E+00  0.28698813E+00  0.54570112E+00
  0.69902667E+00  0.45867298E+00  0.57807350E+00
  0.66714876E+00  0.31439836E+00  0.65268000E+00
  0.57174344E+00  0.45777635E+00  0.68839019E+00
  0.29082567E+00  0.52151649E+00  0.56088661E+00
  0.39242146E+00  0.66689463E+00  0.55172428E+00
  0.46124775E+00  0.59164512E+00  0.68406526E+00
  0.30410249E+00  0.62139684E+00  0.68534460E+00
  0.56107549E+00  0.57085767E+00  0.55645329E+00
  0.66582343E+00  0.71587348E+00  0.50493807E+00
  0.69433485E+00  0.58585649E+00  0.67476597E+00
  0.58987421E+00  0.70453456E+00  0.64857174E+00
  0.00000000E+00  0.00000000E+00  0.00000000E+00
  0.00000000E+00  0.00000000E+00  0.00000000E+00
  0.00000000E+00  0.00000000E+00  0.00000000E+00
  0.00000000E+00  0.00000000E+00  0.00000000E+00
  0.00000000E+00  0.00000000E+00  0.00000000E+00
  0.00000000E+00  0.00000000E+00  0.00000000E+00
  0.00000000E+00  0.00000000E+00  0.00000000E+00
  0.00000000E+00  0.00000000E+00  0.00000000E+00
  0.00000000E+00  0.00000000E+00  0.00000000E+00
  0.00000000E+00  0.00000000E+00  0.00000000E+00
  0.00000000E+00  0.00000000E+00  0.00000000E+00
  0.00000000E+00  0.00000000E+00  0.00000000E+00
  0.00000000E+00  0.00000000E+00  0.00000000E+00
  0.00000000E+00  0.00000000E+00  0.00000000E+00
  0.00000000E+00  0.00000000E+00  0.00000000E+00
  0.00000000E+00  0.00000000E+00  0.00000000E+00
  0.00000000E+00  0.00000000E+00  0.00000000E+00
  0.00000000E+00  0.00000000E+00  0.00000000E+00
  0.00000000E+00  0.00000000E+00  0.00000000E+00
  0.00000000E+00  0.00000000E+00  0.00000000E+00
  0.00000000E+00  0.00000000E+00  0.00000000E+00
  0.00000000E+00  0.00000000E+00  0.00000000E+00
  0.00000000E+00  0.00000000E+00  0.00000000E+00
  0.00000000E+00  0.00000000E+00  0.00000000E+00
  0.00000000E+00  0.00000000E+00  0.00000000E+00
  0.00000000E+00  0.00000000E+00  0.00000000E+00
  0.00000000E+00  0.00000000E+00  0.00000000E+00
  0.00000000E+00  0.00000000E+00  0.00000000E+00
  0.00000000E+00  0.00000000E+00  0.00000000E+00
  0.00000000E+00  0.00000000E+00  0.00000000E+00
  0.00000000E+00  0.00000000E+00  0.00000000E+00
  0.00000000E+00  0.00000000E+00  0.00000000E+00
  0.00000000E+00  0.00000000E+00  0.00000000E+00
  0.00000000E+00  0.00000000E+00  0.00000000E+00
  0.00000000E+00  0.00000000E+00  0.00000000E+00
  0.00000000E+00  0.00000000E+00  0.00000000E+00
  0.00000000E+00  0.00000000E+00  0.00000000E+00
  0.00000000E+00  0.00000000E+00  0.00000000E+00
  0.00000000E+00  0.00000000E+00  0.00000000E+00
  0.00000000E+00  0.00000000E+00  0.00000000E+00
  0.00000000E+00  0.00000000E+00  0.00000000E+00
  0.00000000E+00  0.00000000E+00  0.00000000E+00
  0.00000000E+00  0.00000000E+00  0.00000000E+00
  0.00000000E+00  0.00000000E+00  0.00000000E+00
  0.00000000E+00  0.00000000E+00  0.00000000E+00
  0.00000000E+00  0.00000000E+00  0.00000000E+00
  0.00000000E+00  0.00000000E+00  0.00000000E+00
  0.00000000E+00  0.00000000E+00  0.00000000E+00
  0.00000000E+00  0.00000000E+00  0.00000000E+00
  0.00000000E+00  0.00000000E+00  0.00000000E+00
  0.00000000E+00  0.00000000E+00  0.00000000E+00
  0.00000000E+00  0.00000000E+00  0.00000000E+00
  0.00000000E+00  0.00000000E+00  0.00000000E+00
  0.00000000E+00  0.00000000E+00  0.00000000E+00
  0.00000000E+00  0.00000000E+00  0.00000000E+00
  0.00000000E+00  0.00000000E+00  0.00000000E+00
  0.00000000E+00  0.00000000E+00  0.00000000E+00
  0.00000000E+00  0.00000000E+00  0.00000000E+00
  0.00000000E+00  0.00000000E+00  0.00000000E+00
  0.00000000E+00  0.00000000E+00  0.00000000E+00
  0.00000000E+00  0.00000000E+00  0.00000000E+00
  0.00000000E+00  0.00000000E+00  0.00000000E+00
  0.00000000E+00  0.00000000E+00  0.00000000E+00
  0.00000000E+00  0.00000000E+00  0.00000000E+00
