SYSTEM = Pt cube particle
IBRION=0
POTIM=2.1
ANDERSEN_PROB=0.2
MDALGO=1
TEBEG=3000
TEEND=10
RANDOM_SEED=486655384 486655421

ISYM=0
ISMEAR=1;SIGMA=.2
NSW=1500
EDIFF=1.0E-04

ENMAX=240.0
PREC=Low
LREAL=Auto
ISIF=0

LWAVE=.FALSE.
LCHARG=.FALSE.
LPLANE=.TRUE.
NCORE=4
NSIM=2
ALGO=Fast
