Sr4 Fe4 O12                             
   1.00000000000000     
     5.4995935518460994   -0.0000000000000001    0.0000000000000000
     0.0000000000000000    5.4992004251409785    0.0000000000000000
     0.0000000000000000    0.0000000000000000    7.7965726387099954
   Sr   Fe   O 
     4     4    12
Direct
  0.0000362876512625  0.5001062461057373  0.2500000000000000
  0.5000362876512625  0.9998937538942627  0.7500000000000000
  0.4999637123487375  0.0001062461057373  0.2500000000000000
  0.9999637123487375  0.4998937538942627  0.7500000000000000
  0.5000000000000000  0.5000000000000000  0.5000000000000000
  0.0000000000000000  0.0000000000000000  0.5000000000000000
  0.5000000000000000  0.5000000000000000  0.0000000000000000
  0.0000000000000000  0.0000000000000000  0.0000000000000000
  0.7467709450309954  0.2467757808560407  0.5010899658404071
  0.2532290549690046  0.7532242191439593  0.0010899658404142
  0.7532290549690046  0.7467757808560407  0.5010899658404071
  0.9978144674135621  0.9999967619604817  0.2500000000000000
  0.2467709450309954  0.2532242191439593  0.0010899658404142
  0.7532290549690046  0.7467757808560407  0.9989100341595929
  0.4978144674135621  0.5000032380395254  0.7500000000000000
  0.2532290549690046  0.7532242191439593  0.4989100341595929
  0.0021855325864379  0.0000032380395254  0.7500000000000000
  0.5021855325864379  0.4999967619604746  0.2500000000000000
  0.2467709450309954  0.2532242191439593  0.4989100341595929
  0.7467709450309954  0.2467757808560407  0.9989100341595929
 
  0.00000000E+00  0.00000000E+00  0.00000000E+00
  0.00000000E+00  0.00000000E+00  0.00000000E+00
  0.00000000E+00  0.00000000E+00  0.00000000E+00
  0.00000000E+00  0.00000000E+00  0.00000000E+00
  0.00000000E+00  0.00000000E+00  0.00000000E+00
  0.00000000E+00  0.00000000E+00  0.00000000E+00
  0.00000000E+00  0.00000000E+00  0.00000000E+00
  0.00000000E+00  0.00000000E+00  0.00000000E+00
  0.00000000E+00  0.00000000E+00  0.00000000E+00
  0.00000000E+00  0.00000000E+00  0.00000000E+00
  0.00000000E+00  0.00000000E+00  0.00000000E+00
  0.00000000E+00  0.00000000E+00  0.00000000E+00
  0.00000000E+00  0.00000000E+00  0.00000000E+00
  0.00000000E+00  0.00000000E+00  0.00000000E+00
  0.00000000E+00  0.00000000E+00  0.00000000E+00
  0.00000000E+00  0.00000000E+00  0.00000000E+00
  0.00000000E+00  0.00000000E+00  0.00000000E+00
  0.00000000E+00  0.00000000E+00  0.00000000E+00
  0.00000000E+00  0.00000000E+00  0.00000000E+00
  0.00000000E+00  0.00000000E+00  0.00000000E+00
