Sr4 Fe4 O12                             
   1.00000000000000     
     5.4995935518460994   -0.0000000000000001    0.0000000000000000
     0.0000000000000000    5.4992004251409785    0.0000000000000000
     0.0000000000000000    0.0000000000000000    7.7965726387099954
   Sr   Fe   O 
     4     4    12
Direct
  0.0000362876512656  0.5001062461057362  0.2500000000000000
  0.5000362876512656  0.9998937538942638  0.7500000000000000
  0.4999637123487344  0.0001062461057361  0.2500000000000000
  0.9999637123487344  0.4998937538942639  0.7500000000000000
  0.5000000000000000  0.5000000000000000  0.5000000000000000
  0.0000000000000000  0.0000000000000000  0.5000000000000000
  0.5000000000000000  0.5000000000000000  0.0000000000000000
  0.0000000000000000  0.0000000000000000  0.0000000000000000
  0.7467709450309953  0.2467757808560410  0.5010899658404039
  0.2532290549690047  0.7532242191439590  0.0010899658404109
  0.7532290549690047  0.7467757808560410  0.5010899658404039
  0.9978144674135623  0.9999967619604847  0.2500000000000000
  0.2467709450309953  0.2532242191439590  0.0010899658404109
  0.7532290549690047  0.7467757808560410  0.9989100341595961
  0.4978144674135623  0.5000032380395224  0.7500000000000000
  0.2532290549690047  0.7532242191439590  0.4989100341595962
  0.0021855325864377  0.0000032380395225  0.7500000000000000
  0.5021855325864377  0.4999967619604775  0.2500000000000000
  0.2467709450309953  0.2532242191439590  0.4989100341595962
  0.7467709450309953  0.2467757808560410  0.9989100341595961
 
  0.00000000E+00  0.00000000E+00  0.00000000E+00
  0.00000000E+00  0.00000000E+00  0.00000000E+00
  0.00000000E+00  0.00000000E+00  0.00000000E+00
  0.00000000E+00  0.00000000E+00  0.00000000E+00
  0.00000000E+00  0.00000000E+00  0.00000000E+00
  0.00000000E+00  0.00000000E+00  0.00000000E+00
  0.00000000E+00  0.00000000E+00  0.00000000E+00
  0.00000000E+00  0.00000000E+00  0.00000000E+00
  0.00000000E+00  0.00000000E+00  0.00000000E+00
  0.00000000E+00  0.00000000E+00  0.00000000E+00
  0.00000000E+00  0.00000000E+00  0.00000000E+00
  0.00000000E+00  0.00000000E+00  0.00000000E+00
  0.00000000E+00  0.00000000E+00  0.00000000E+00
  0.00000000E+00  0.00000000E+00  0.00000000E+00
  0.00000000E+00  0.00000000E+00  0.00000000E+00
  0.00000000E+00  0.00000000E+00  0.00000000E+00
  0.00000000E+00  0.00000000E+00  0.00000000E+00
  0.00000000E+00  0.00000000E+00  0.00000000E+00
  0.00000000E+00  0.00000000E+00  0.00000000E+00
  0.00000000E+00  0.00000000E+00  0.00000000E+00
